 vasp.6.4.2 20Jul23 (build Nov 12 2023 22:16:35) complex
 executed on              LinuxNV date 2025.03.14  14:56:58
 OpenACC runtime initialized ...    4 GPUs detected

 INCAR:
   PREC = Normal
   ENCUT = 450
   NELM = 500
   IBRION = -1
   ISPIN = 1
   NSW = 0
   ISIF = 2
   EDIFF = 1E-5
   EDIFFG = -5E-3
   ISTART = 0
   ICHARG = 0
   ISMEAR = 0
   SIGMA = 0.05
   LWAVE = .T.
   LCHARG = .T.
   LREAL = Auto
   LPLANE = .TRUE.
   NPAR = 1
   KPAR = 4
   NCORE = 1
   ALGO = All
   LHFCALC = .TRUE.
   HSE06 = .TRUE.
   HFSCREEN = 0.18
   TIME = 0.4
   AEXX = 0.35
   LMAXFOCK = 4
   PRECFOCK = Fast
   NELECT = 1056

 POTCAR:    PAW_PBE Ga_d 06Jul2010
 POTCAR:     PAW_PBE O 08Apr2002
 POTCAR:    PAW_PBE P 06Sep2000
 POTCAR:    PAW_PBE Ga_d 06Jul2010
   VRHFIN =Ga: s2p1

   TITEL  = PAW_PBE Ga_d 06Jul2010
   POMASS =   69.723; ZVAL   =   13.000    mass and valenz
   ENMAX  =  282.691; ENMIN  =  212.018 eV

   TITEL  = PAW_PBE O 08Apr2002
   POMASS =   16.000; ZVAL   =    6.000    mass and valenz
   ENMAX  =  400.000; ENMIN  =  300.000 eV

   TITEL  = PAW_PBE P 06Sep2000
   POMASS =   30.974; ZVAL   =    5.000    mass and valenz
   ENMAX  =  255.040; ENMIN  =  191.280 eV

 Free energy of the ion-electron system (eV)
  alpha Z        PSCENC =      5376.25786726
  Ewald energy   TEWEN  =    -86518.53378655
  -Hartree energ DENC   =    -36538.22566200
  -exchange      EXHF   =      3678.47164826
  -V(xc)+E(xc)   XCENC  =      2557.40934772
  PAW double counting   =    188161.14210892  -200975.66859291
  entropy T*S    EENTRO =        -0.01444724
  eigenvalues    EBANDS =     13486.36304879
  atomic energy  EATOM  =    131459.35058357
  free energy    TOTEN  =     20686.54499393 eV

  energy without entropy =    20686.55944117  energy(sigma->0) =    20686.55221755
  exchange ACFDT corr.  =      -140.34300450  see jH, gK, PRB 81, 115126

--------------------------------------- Iteration      1(   8)  ---------------------------------------

 eigenvalue-minimisations  :     0
 total energy-change (2. order) :-0.6879507E+04  (-0.6246101E+04)
 number of electron    1055.9999228 magnetization
 augmentation part      417.1087874 magnetization

[...]

--------------------------------------- Iteration      1(  48)  ---------------------------------------

 eigenvalue-minimisations  :     0
 total energy-change (2. order) :-0.8135408E-05  (-0.3274832E-05)
 number of electron    1055.9999085 magnetization
 augmentation part      449.3111219 magnetization

 Free energy of the ion-electron system (eV)
  alpha Z        PSCENC =      5376.25786726
  Ewald energy   TEWEN  =    -86518.53378655
  -Hartree energ DENC   =    -34059.98832530
  -exchange      EXHF   =      4291.73563593
  -V(xc)+E(xc)   XCENC  =      2789.08181955
  PAW double counting   =    122109.24063433  -137307.07771984
  entropy T*S    EENTRO =        -0.00636316
  eigenvalues    EBANDS =     -9007.86737769
  atomic energy  EATOM  =    131459.35058357
  free energy    TOTEN  =      -867.80424038 eV

  energy without entropy =     -867.79787722  energy(sigma->0) =     -867.80105880
  exchange ACFDT corr.  =        -0.00350570  see jH, gK, PRB 81, 115126

  average scaling for gradient   0.5509

 average (electrostatic) potential at core
  the test charge radii are     1.0314  0.7215  0.9587
  (the norm of the test charge is              1.0000)
       1 -54.9482       2 -54.8178       3 -55.0144       4 -54.8583       5 -55.0144
       6 -54.8583       7 -54.6333       8 -54.6477       9 -55.0053      10 -54.3237
      11 -54.6333      12 -54.6477      13 -55.0721      14 -54.9412      15 -55.0980
      16 -55.1388      17 -55.0721      18 -54.9412      19 -54.9712      20 -54.9581
      21 -54.3332      22 -54.8751      23 -54.3332      24 -54.8751      25 -54.2266
      26 -54.4972      27 -54.4967      28 -54.9413      29 -54.2266      30 -54.4972
      31 -54.4102      32 -54.9091      33 -54.7645      34 -54.9359      35 -54.7645
      36 -54.9359      37 -54.7831      38 -54.4604      39 -54.0632      40 -54.4604
      41 -54.0632      42 -54.9698      43 -55.0775      44 -55.0840      45 -55.1239
      46 -54.9699      47 -55.0775      48 -60.8040      49 -61.3557      50 -60.2416
      51 -61.5348      52 -60.8040      53 -61.3557      54 -61.4192      55 -61.2494
      56 -61.5410      57 -61.5195      58 -61.5410      59 -61.5195      60 -61.6939
      61 -61.2741      62 -61.6356      63 -61.7424      64 -61.6939      65 -61.2740
      66 -61.4515      67 -61.5127      68 -61.4711      69 -60.9225      70 -61.4711
      71 -60.9225      72 -61.0544      73 -60.8511      74 -61.0103      75 -60.5118
      76 -61.0103      77 -60.5119      78 -61.1397      79 -61.1162      80 -61.2228
      81 -61.2721      82 -61.1397      83 -61.1162      84 -61.4993      85 -61.5392
      86 -61.5599      87 -61.6378      88 -61.5600      89 -61.6378      90 -59.6475
      91 -61.0377      92 -61.2075      93 -59.8683      94 -59.6475      95 -61.0377
      96 -61.1681      97 -61.0273      98 -61.0383      99 -61.0272     100 -61.0383
     101 -61.0559     102 -61.5806     103 -61.6609     104 -61.6643     105 -61.0560
     106 -61.5806     107 -60.9572     108 -61.1810     109 -61.1020     110 -61.2603
     111 -60.9572     112 -61.1810     113 -60.6414     114 -59.3215     115 -60.6360
     116 -60.9226     117 -60.6360     118 -60.9226     119 -75.3829

 E-fermi :   8.8882     XC(G=0):  -8.6678     alpha+bet :-12.5573

 Fermi energy:         8.8882355785

 k-point     1 :       0.0000    0.0000    0.0000
  band No.  band energies     occupation
      1     -19.2912      2.00000
      2     -19.0303      2.00000
      3     -18.8746      2.00000
      4     -18.8374      2.00000
      5     -18.6138      2.00000
      6     -18.5729      2.00000
      7     -18.5538      2.00000
      8     -18.4483      2.00000
      9     -18.4468      2.00000
     10     -18.4190      2.00000
     11     -18.3132      2.00000
     12     -18.3034      2.00000
     13     -18.2906      2.00000
     14     -18.2451      2.00000
     15     -18.1963      2.00000
     16     -18.1743      2.00000
     17     -18.1433      2.00000
     18     -18.1107      2.00000
     19     -18.0847      2.00000
     20     -18.0692      2.00000
     21     -18.0516      2.00000
     22     -17.9856      2.00000
     23     -17.9714      2.00000
     24     -17.9640      2.00000
     25     -17.9225      2.00000
     26     -17.8971      2.00000
     27     -17.8423      2.00000
     28     -17.8321      2.00000
     29     -17.7965      2.00000
     30     -17.7842      2.00000
     31     -17.7725      2.00000
     32     -17.7625      2.00000
     33     -17.7589      2.00000
     34     -17.7295      2.00000
     35     -17.7225      2.00000
     36     -17.7048      2.00000
     37     -17.6916      2.00000
     38     -17.6686      2.00000
     39     -17.6569      2.00000
     40     -17.6198      2.00000
     41     -17.6012      2.00000
     42     -17.6009      2.00000
     43     -17.5972      2.00000
     44     -17.5571      2.00000
     45     -17.5237      2.00000
     46     -17.4926      2.00000
     47     -17.4798      2.00000
     48     -17.4616      2.00000
     49     -17.4573      2.00000
     50     -17.4492      2.00000
     51     -17.4073      2.00000
     52     -17.4021      2.00000
     53     -17.3749      2.00000
     54     -17.3600      2.00000
     55     -17.3431      2.00000
     56     -17.3253      2.00000
     57     -17.3177      2.00000
     58     -17.2083      2.00000
     59     -17.1680      2.00000
     60     -17.1445      2.00000
[...]
    619      15.1363      0.00000
    620      15.1482      0.00000
    621      15.1678      0.00000
    622      15.2513      0.00000
    623      15.3488      0.00000
    624      15.6927      0.00000
    625      15.8006      0.00000
    626      15.8493      0.00000
    627      15.9328      0.00000
    628      16.0579      0.00000
    629      16.2112      0.00000
    630      16.2420      0.00000
    631      16.3782      0.00000
    632      16.7115      0.00000
    633      16.7566      0.00000

[...]

 k-point     8 :       0.5000    0.5000    0.5000
  band No.  band energies     occupation
      1     -19.0380      2.00000
      2     -18.9782      2.00000
      3     -18.9639      2.00000
      4     -18.9441      2.00000
      5     -18.7861      2.00000
      6     -18.7509      2.00000
      7     -18.7128      2.00000
      8     -18.5070      2.00000
      9     -18.3656      2.00000
     10     -18.2632      2.00000
     11     -18.2519      2.00000
     12     -18.2485      2.00000
     13     -18.2240      2.00000
     14     -18.2032      2.00000
     15     -18.1833      2.00000
     16     -18.1623      2.00000
     17     -18.1457      2.00000
     18     -18.1118      2.00000
     19     -18.1020      2.00000
     20     -18.0867      2.00000
     21     -18.0305      2.00000
     22     -17.9670      2.00000
     23     -17.9625      2.00000
     24     -17.9431      2.00000
     25     -17.9310      2.00000
     26     -17.8835      2.00000
     27     -17.8719      2.00000
     28     -17.8264      2.00000
     29     -17.8138      2.00000
     30     -17.7718      2.00000
     31     -17.7699      2.00000
     32     -17.7344      2.00000
     33     -17.7271      2.00000
     34     -17.7249      2.00000
     35     -17.7183      2.00000
     36     -17.7036      2.00000
     37     -17.6837      2.00000
     38     -17.6486      2.00000
     39     -17.6478      2.00000
     40     -17.6301      2.00000
     41     -17.6228      2.00000
     42     -17.6224      2.00000
     43     -17.5872      2.00000
     44     -17.5729      2.00000
     45     -17.5625      2.00000
     46     -17.5460      2.00000
     47     -17.5053      2.00000
     48     -17.4941      2.00000
     49     -17.4529      2.00000
     50     -17.4323      2.00000
     51     -17.3925      2.00000
     52     -17.3903      2.00000
     53     -17.3717      2.00000
     54     -17.3575      2.00000
     55     -17.3396      2.00000
     56     -17.3368      2.00000
     57     -17.3079      2.00000
     58     -17.2268      2.00000
     59     -17.1848      2.00000
     60     -17.1602      2.00000
[...]
    619      15.2268      0.00000
    620      15.2972      0.00000
    621      15.4133      0.00000
    622      15.4332      0.00000
    623      15.6424      0.00000
    624      15.6830      0.00000
    625      15.8305      0.00000
    626      15.8440      0.00000
    627      15.8481      0.00000
    628      16.1457      0.00000
    629      16.2126      0.00000
    630      16.2355      0.00000
    631      16.4482      0.00000
    632      16.4609      0.00000
    633      16.6281      0.00000

 soft charge-density along one line, spin component            1
         0         1         2         3         4         5         6         7         8         9
 total charge-density along one line

------------------------ aborting loop because EDIFF is reached ----------------------------------------

  FORCE on cell =-STRESS in cart. coord.  units (eV):
  Direction    XX          YY          ZZ          XY          YZ          ZX
  Alpha Z  5376.25787  5376.25787  5376.25787
  Ewald  -24689.92676-31367.61488-30461.76318    -0.00000 -1532.15789    -0.00000
  Hartree 13997.05495  9645.35266 10417.55481     0.00002 -1060.02169    -0.00012
  E(xc)   -3902.49863 -3904.73788 -3904.91499     0.00000    -0.33426     0.00000
  Local   -6013.41891  4906.12442  3193.29101     0.00009  2568.47960     0.00022
  n-local  6776.55058  6726.82469  6730.64037    -0.00000    -3.48616    -0.00003
  augment  5307.33769  5319.77034  5327.16575    -0.00000     3.41485    -0.00002
  Kinetic 12478.62111 12660.52753 12694.91181    -0.00011    25.37432    -0.00006
  Fock    -9182.28828 -9188.17564 -9187.02048    -0.00001     0.08072     0.00003
  Total     147.68961   174.32911   186.12297     0.00000     1.34949     0.00000
  in kB     186.49431   220.13321   235.02584     0.00000     1.70407     0.00000

 VOLUME and BASIS-vectors are now :
  energy-cutoff  :      450.00
  volume of cell :     1268.81
      direct lattice vectors                 reciprocal lattice vectors
     0.000000000 12.280473417  0.000000000     0.000000000  0.081430085 -0.019947423
     9.142702054  0.000000000  0.000000000     0.109376855 -0.000000000  0.000000000
     0.000000000 -2.768261773-11.300697718     0.000000000  0.000000000 -0.088490111

  length of vectors
    12.280473417  9.142702054 11.634820246     0.083837691  0.109376855  0.088490111

 FORCES acting on ions:
    Electron-Ion                     Ewald-Force                    Non-Local-Force
   0.611E-04 -.607E+01 -.584E+02   -.587E-12 0.663E+01 0.635E+02   0.000E+00 -.416E+00 -.468E+01
   -.521E-04 -.208E+02 -.117E+03   -.766E-12 0.198E+02 0.117E+03   0.000E+00 0.865E+00 -.857E+00
   0.432E+02 0.322E+02 -.537E+02   -.437E+02 -.327E+02 0.574E+02   0.411E+00 0.503E+00 -.344E+01
   -.600E+02 -.155E+01 -.815E+02   0.588E+02 0.521E+01 0.833E+02   0.102E+01 -.323E+01 -.180E+01
   -.432E+02 0.322E+02 -.537E+02   0.437E+02 -.327E+02 0.574E+02   -.411E+00 0.503E+00 -.344E+01
   0.600E+02 -.155E+01 -.815E+02   -.588E+02 0.521E+01 0.833E+02   -.102E+01 -.323E+01 -.180E+01
   0.103E+03 -.205E+03 0.677E+02   -.102E+03 0.215E+03 -.742E+02   -.912E+00 -.912E+01 0.594E+01
   0.559E+01 -.178E+03 0.933E+02   -.168E+01 0.177E+03 -.985E+02   -.353E+01 -.740E-01 0.488E+01
   -.172E-04 -.143E+03 0.108E+03   0.434E-12 0.143E+03 -.113E+03   0.000E+00 -.349E+00 0.479E+01
   -.187E-04 -.730E+02 -.505E+02   0.206E-10 0.834E+02 0.445E+02   0.000E+00 -.941E+01 0.571E+01
   -.103E+03 -.205E+03 0.677E+02   0.102E+03 0.215E+03 -.742E+02   0.912E+00 -.912E+01 0.594E+01
   -.559E+01 -.178E+03 0.933E+02   0.168E+01 0.177E+03 -.985E+02   0.353E+01 -.740E-01 0.488E+01
   0.206E+02 -.128E+02 -.564E+00   -.206E+02 0.128E+02 -.201E+01   0.108E+00 0.214E-01 0.231E+01
   0.316E+02 -.261E+02 0.495E+02   -.336E+02 0.250E+02 -.504E+02   0.183E+01 0.866E+00 0.805E+00
   0.942E-04 -.263E+02 0.425E+02   -.710E-12 0.257E+02 -.435E+02   0.000E+00 0.456E+00 0.981E+00
   -.458E-04 0.327E+02 -.193E+02   0.203E-11 -.336E+02 0.176E+02   0.000E+00 0.695E+00 0.145E+01
   -.206E+02 -.128E+02 -.564E+00   0.206E+02 0.128E+02 -.201E+01   -.108E+00 0.214E-01 0.231E+01
   -.316E+02 -.261E+02 0.495E+02   0.336E+02 0.250E+02 -.504E+02   -.183E+01 0.866E+00 0.805E+00
   -.248E-04 -.104E+03 0.165E+03   -.161E-11 0.103E+03 -.163E+03   0.000E+00 -.716E-01 -.218E+01
   -.521E-04 -.120E+03 -.996E+02   -.165E-11 0.121E+03 0.101E+03   0.000E+00 -.456E+00 -.105E+01
   0.149E+03 -.117E+03 0.658E+02   -.140E+03 0.115E+03 -.616E+02   -.927E+01 0.173E+01 -.414E+01
   -.234E+02 -.619E+02 0.625E+00   0.226E+02 0.598E+02 -.115E+01   0.682E+00 0.186E+01 0.307E+00
   -.149E+03 -.117E+03 0.658E+02   0.140E+03 0.115E+03 -.616E+02   0.927E+01 0.173E+01 -.414E+01
   0.234E+02 -.619E+02 0.624E+00   -.226E+02 0.598E+02 -.115E+01   -.682E+00 0.186E+01 0.307E+00
   0.167E+03 0.124E+03 0.968E+02   -.175E+03 -.128E+03 -.105E+03   0.836E+01 0.348E+01 0.757E+01
   0.499E+02 0.824E+02 -.225E+03   -.563E+02 -.813E+02 0.233E+03   0.588E+01 -.104E+01 -.733E+01
   -.949E-04 0.392E+02 -.115E+03   -.240E-12 -.473E+02 0.117E+03   0.000E+00 0.733E+01 -.213E+01
   -.107E-03 0.869E+02 -.118E+03   -.842E-13 -.873E+02 0.122E+03   0.000E+00 0.415E+00 -.340E+01
   -.167E+03 0.124E+03 0.968E+02   0.175E+03 -.128E+03 -.105E+03   -.836E+01 0.348E+01 0.757E+01
   -.499E+02 0.824E+02 -.225E+03   0.563E+02 -.813E+02 0.233E+03   -.588E+01 -.104E+01 -.733E+01
   -.923E-04 0.326E+03 0.236E+02   -.177E-10 -.341E+03 -.221E+02   0.000E+00 0.145E+02 -.158E+01
   0.660E-04 0.230E+02 0.888E+02   -.925E-13 -.233E+02 -.924E+02   0.000E+00 0.178E+00 0.337E+01
   0.720E+02 0.685E+02 0.641E+02   -.740E+02 -.707E+02 -.670E+02   0.176E+01 0.193E+01 0.274E+01
   0.543E+01 0.396E+02 0.942E+02   -.641E+01 -.410E+02 -.970E+02   0.866E+00 0.127E+01 0.271E+01
   -.720E+02 0.685E+02 0.641E+02   0.740E+02 -.707E+02 -.670E+02   -.176E+01 0.193E+01 0.274E+01
   -.543E+01 0.396E+02 0.942E+02   0.641E+01 -.410E+02 -.970E+02   -.866E+00 0.127E+01 0.271E+01
   0.638E-04 -.499E+01 0.513E+02   -.127E-11 0.846E+01 -.551E+02   0.000E+00 -.291E+01 0.343E+01
   0.201E+03 -.728E+02 -.285E+02   -.206E+03 0.678E+02 0.270E+02   0.470E+01 0.460E+01 0.125E+01
   0.945E+02 -.103E+02 0.128E+02   -.740E+02 0.163E+02 -.150E+02   -.193E+02 -.570E+01 0.208E+01
   -.201E+03 -.728E+02 -.285E+02   0.206E+03 0.678E+02 0.270E+02   -.470E+01 0.460E+01 0.125E+01
   -.945E+02 -.103E+02 0.128E+02   0.740E+02 0.163E+02 -.150E+02   0.193E+02 -.570E+01 0.208E+01
   0.423E+02 0.136E+03 -.384E+02   -.418E+02 -.137E+03 0.379E+02   -.419E+00 0.106E+01 0.397E+00
   0.268E+02 0.133E+03 -.848E+02   -.268E+02 -.133E+03 0.881E+02   -.611E-01 0.249E+00 -.293E+01
   0.117E-04 0.121E+03 -.368E+02   -.242E-12 -.121E+03 0.386E+02   0.000E+00 0.168E+00 -.168E+01
   -.742E-04 0.975E+02 -.599E+02   -.511E-11 -.978E+02 0.620E+02   0.000E+00 0.292E+00 -.188E+01
   -.423E+02 0.136E+03 -.384E+02   0.418E+02 -.137E+03 0.379E+02   0.419E+00 0.106E+01 0.397E+00
   -.268E+02 0.133E+03 -.848E+02   0.268E+02 -.133E+03 0.881E+02   0.611E-01 0.249E+00 -.293E+01
   0.258E+02 -.579E+02 0.598E+02   -.229E+02 0.643E+02 -.606E+02   -.245E+01 -.542E+01 0.720E+00
   0.137E+02 -.588E+02 0.269E+01   -.125E+02 0.647E+02 -.832E+01   -.945E+00 -.494E+01 0.473E+01
   -.646E-04 -.123E+02 0.871E+02   0.856E-12 0.779E+01 -.944E+02   0.000E+00 0.399E+01 0.602E+01
   -.246E-04 -.127E+02 0.440E+02   0.122E-11 0.176E+02 -.485E+02   0.000E+00 -.408E+01 0.380E+01
   -.258E+02 -.579E+02 0.598E+02   0.229E+02 0.643E+02 -.606E+02   0.245E+01 -.542E+01 0.720E+00
   -.137E+02 -.588E+02 0.269E+01   0.125E+02 0.647E+02 -.832E+01   0.945E+00 -.494E+01 0.473E+01
   -.595E-04 0.828E+02 -.339E+02   -.388E-12 -.933E+02 0.383E+02   0.000E+00 0.887E+01 -.370E+01
   0.618E-05 0.438E+02 0.401E+01   -.365E-12 -.493E+02 -.236E+01   0.000E+00 0.451E+01 -.137E+01
   -.236E+01 0.363E+02 -.191E+02   0.381E+01 -.432E+02 0.227E+02   -.124E+01 0.575E+01 -.302E+01
   0.366E+02 0.381E+02 -.631E+01   -.395E+02 -.445E+02 0.887E+01   0.236E+01 0.538E+01 -.217E+01
   0.236E+01 0.363E+02 -.191E+02   -.381E+01 -.432E+02 0.227E+02   0.124E+01 0.575E+01 -.302E+01
   -.366E+02 0.381E+02 -.631E+01   0.395E+02 -.445E+02 0.887E+01   -.236E+01 0.538E+01 -.217E+01
   0.924E+01 0.359E+02 0.476E+02   -.848E+01 -.336E+02 -.446E+02   -.648E+00 -.185E+01 -.247E+01
[...]
   -.190E+02 -.193E+02 -.582E+02   0.199E+02 0.160E+02 0.538E+02   -.763E+00 0.283E+01 0.372E+01
   0.571E+02 0.188E+03 0.959E+01   -.593E+02 -.198E+03 -.511E+01   0.187E+01 0.805E+01 -.381E+01
   0.746E+01 0.160E+03 0.704E+02   -.764E+01 -.171E+03 -.678E+02   0.140E+00 0.944E+01 -.214E+01
   0.187E-03 0.147E+03 0.488E+02   -.559E-11 -.158E+03 -.450E+02   0.000E+00 0.893E+01 -.321E+01
   -.984E-04 0.129E+03 0.631E+02   0.112E-12 -.136E+03 -.608E+02   0.000E+00 0.624E+01 -.188E+01
   -.571E+02 0.188E+03 0.959E+01   0.593E+02 -.198E+03 -.511E+01   -.187E+01 0.805E+01 -.381E+01
   -.746E+01 0.160E+03 0.704E+02   0.764E+01 -.171E+03 -.678E+02   -.140E+00 0.944E+01 -.214E+01
   0.473E-04 -.989E+02 0.246E+02   -.423E-12 0.111E+03 -.322E+02   0.000E+00 -.104E+02 0.651E+01
   -.178E-04 -.485E+02 -.370E+03   -.128E-12 0.581E+02 0.393E+03   0.000E+00 -.818E+01 -.195E+02
   0.545E+02 -.879E+02 -.836E+02   -.553E+02 0.989E+02 0.874E+02   0.564E+00 -.935E+01 -.344E+01
   0.369E+02 -.110E+03 -.102E+03   -.363E+02 0.123E+03 0.100E+03   -.490E+00 -.108E+02 0.159E+01
   -.545E+02 -.879E+02 -.836E+02   0.553E+02 0.989E+02 0.874E+02   -.564E+00 -.935E+01 -.344E+01
   -.369E+02 -.110E+03 -.102E+03   0.363E+02 0.123E+03 0.100E+03   0.490E+00 -.108E+02 0.159E+01
   -.499E-04 0.149E+03 0.151E+03   -.124E-13 -.151E+03 -.153E+03   0.000E+00 0.173E+01 0.167E+01
   0.180E-03 0.966E+01 -.416E+02   -.906E-13 -.966E-12 0.313E-12   0.999E-15 -.664E+01 0.363E+02

 POSITION                                       TOTAL-FORCE (eV/Angst)
      0.00000      7.65046     -1.78899        -0.000000      0.055766      0.075348
      0.00000      6.35604     -7.37047        -0.000000     -0.014303     -0.099546
      3.04405      7.65708     -1.76863        -0.012222      0.013788      0.025648
      3.01756      6.38756     -7.43473        -0.068336      0.155413     -0.006178
      6.09866      7.65708     -1.76863         0.012222      0.013788      0.025648
      6.12515      6.38756     -7.43473         0.068336      0.155413     -0.006178
      1.53383      9.38547     -3.87740        -0.004711      0.122673     -0.135581
      1.51836      8.15089     -9.47444         0.119572     -0.153529     -0.057713
      4.57135      9.36911     -3.89222        -0.000000     -0.121483     -0.086819
      4.57135      7.57184    -10.13302        -0.000000      0.209586      0.049548
      7.60887      9.38547     -3.87740         0.004711      0.122673     -0.135581
      7.62434      8.15089     -9.47444        -0.119572     -0.153529     -0.057713
      1.49860      6.10818     -4.44771         0.046522      0.029820     -0.033586
      1.49973      4.90675    -10.12879        -0.025409     -0.089587     -0.003531
      4.57135      6.22659     -4.53426        -0.000000     -0.046038      0.048187
      4.57135      4.65599    -10.07903        -0.000000     -0.072972     -0.052143
      7.64411      6.10818     -4.44771        -0.046522      0.029820     -0.033586
      7.64297      4.90675    -10.12879         0.025409     -0.089587     -0.003531
      0.00000     10.97125     -1.18912        -0.000000     -0.138809      0.094797
      0.00000      9.61220     -6.70252        -0.000000      0.005904     -0.026236
      3.30645     10.75728     -1.04195        -0.123174      0.003551     -0.089790
      3.04672      9.52813     -6.77847        -0.038196     -0.062128     -0.105367
      5.83625     10.75728     -1.04195         0.123174      0.003551     -0.089790
      6.09598      9.52813     -6.77847         0.038196     -0.062128     -0.105367
      1.49577      1.40189     -1.77575         0.170054      0.076417      0.184765
      1.48421      0.22327     -7.30076        -0.049357      0.017244      0.067046
      4.57135      1.61693     -1.81510        -0.000000     -0.150239     -0.076865
      4.57135      0.20599     -7.37480        -0.000000      0.031686     -0.019270
      7.64693      1.40189     -1.77575        -0.170054      0.076417      0.184765
      7.65849      0.22327     -7.30076         0.049357      0.017244      0.067046
      0.00000      3.05154     -3.89932        -0.000000      0.124975     -0.115188
      0.00000      1.85806     -9.53836        -0.000000     -0.073017     -0.023544
      3.03667      3.24031     -3.90076        -0.046657     -0.097529      0.004437
      3.01568      1.83016     -9.49940        -0.039333     -0.085143     -0.003390
      6.10603      3.24031     -3.90076         0.046657     -0.097529      0.004437
      6.12703      1.83016     -9.49940         0.039333     -0.085143     -0.003390
      0.00000     -1.37091    -10.07922        -0.000000      0.203336     -0.041431
      2.98266     -0.03041     -4.45477        -0.101073     -0.023998     -0.086458
      3.37301     -1.30327    -10.16476         0.016445      0.036295     -0.005619
      6.16004     -0.03041     -4.45477         0.101073     -0.023998     -0.086458
      5.76969     -1.30327    -10.16476        -0.016445      0.036295     -0.005619
      1.52726      4.68583     -1.16578         0.021665      0.059204     -0.036743
      1.53758      3.42379     -6.85769        -0.016081      0.033756      0.034918
      4.57135      4.74615     -1.15483        -0.000000      0.093660      0.000956
      4.57135      3.43218     -6.82632        -0.000000      0.037589     -0.010266
      7.61544      4.68583     -1.16578        -0.021665      0.059204     -0.036743
      7.60513      3.42379     -6.85769         0.016081      0.033756      0.034918
      1.70678     11.74003     -1.26703        -0.125752     -0.179747      0.058557
      1.53415     -1.70863     -7.08001        -0.053284     -0.162167      0.188831
      4.57135     -0.21357     -1.75926        -0.000000      0.176099      0.180238
      4.57135     -1.72267     -7.11365        -0.000000     -0.098499      0.179311
      7.43592     11.74003     -1.26703         0.125752     -0.179747      0.058557
      7.60855     -1.70863     -7.08001         0.053284     -0.162167      0.188831
      0.00000      5.05557     -4.18184        -0.000000      0.299114     -0.141868
      0.00000      3.78254     -9.88559        -0.000000      0.117909     -0.041260
      3.07626      5.17205     -4.22279        -0.061838      0.160209     -0.111757
      2.97228      3.76271     -9.85132         0.082322      0.178779     -0.082586
      6.06644      5.17205     -4.22279         0.061838      0.160209     -0.111757
      6.17043      3.76271     -9.85132        -0.082322      0.178779     -0.082586
      1.50905      7.46432     -3.15661        -0.027146     -0.012455     -0.058988
[...]
      7.56247      3.47473     -2.54272        -0.066666      0.130441      0.119221
      7.62059      2.11670     -8.16481        -0.009426      0.054497      0.176304
      1.57748      2.97450     -5.10559         0.056152      0.345520     -0.137734
      1.52464      1.44172    -10.68734        -0.008240      0.377760     -0.041959
      4.57135      2.95516     -5.06644        -0.000000      0.360514     -0.104454
      4.57135      1.58101    -10.64968        -0.000000      0.310650     -0.057955
      7.56522      2.97450     -5.10559        -0.056152      0.345520     -0.137734
      7.61806      1.44172    -10.68734         0.008240      0.377760     -0.041959
      0.00000      1.94967     -0.51766        -0.000000     -0.493382      0.217393
      0.00000      0.71331     -6.31622        -0.000000     -0.332201     -0.895910
      2.97927      1.95276     -0.71179        -0.057565     -0.455975     -0.243469
      3.06331      0.63240     -6.19825        -0.012699     -0.458525      0.018069
      6.16343      1.95276     -0.71179         0.057565     -0.455975     -0.243469
      6.07939      0.63240     -6.19825         0.012699     -0.458525      0.018069
      0.00000      0.82940     -3.39453        -0.000000      0.544953      0.486047
    total drift:                                0.000180     -0.072265      0.170399

  FREE ENERGIE OF THE ION-ELECTRON SYSTEM (eV)
  free  energy   TOTEN  =      -867.80424038 eV

  energy  without entropy=     -867.79787722  energy(sigma->0) =     -867.80105880

 writing wavefunctions