 vasp.6.4.2 20Jul23 (build Nov 12 2023 22:16:35) complex
 executed on              LinuxNV date 2025.03.08  11:27:37
 OpenACC runtime initialized ...    4 GPUs detected

 INCAR:
   PREC = Normal
   ENCUT = 450
   NELM = 500
   IBRION = -1
   ISPIN = 1
   NSW = 0
   ISIF = 2
   EDIFF = 1E-5
   EDIFFG = -5E-3
   ISTART = 0
   ICHARG = 0
   ISMEAR = 0
   SIGMA = 0.05
   LWAVE = .T.
   LCHARG = .T.
   LREAL = Auto
   LPLANE = .TRUE.
   NPAR = 1
   KPAR = 4
   NCORE = 1
   ALGO = All
   LHFCALC = .TRUE.
   HSE06 = .TRUE.
   HFSCREEN = 0.18
   TIME = 0.4
   AEXX = 0.35
   LMAXFOCK = 4
   PRECFOCK = Fast
   NELECT = 1056

 POTCAR:    PAW_PBE Ga_d 06Jul2010
 POTCAR:    PAW_PBE O 08Apr2002
 POTCAR:    PAW_PBE N 08Apr2002
 POTCAR:    PAW_PBE Ga_d 06Jul2010
   VRHFIN =Ga: s2p1

   TITEL  = PAW_PBE Ga_d 06Jul2010
   POMASS =   69.723; ZVAL   =   13.000    mass and valenz
   ENMAX  =  282.691; ENMIN  =  212.018 eV

   TITEL  = PAW_PBE O 08Apr2002
   POMASS =   16.000; ZVAL   =    6.000    mass and valenz
   ENMAX  =  400.000; ENMIN  =  300.000 eV

   TITEL  = PAW_PBE N 08Apr2002
   POMASS =   14.001; ZVAL   =    5.000    mass and valenz
   ENMAX  =  400.000; ENMIN  =  300.000 eV

 Optimization of the real space projectors (new method)

 maximal supplied QI-value         = 16.25
 optimisation between [QCUT,QGAM] = [ 10.73, 21.61] = [ 32.22,130.83] Ry
 Optimized for a Real-space Cutoff    1.42 Angstroem

   l    n(q)    QCUT    max X(q) W(low)/X(q) W(high)/X(q)  e(spline)
   2      8    10.726     7.143    0.22E-03    0.16E-03    0.73E-07
   2      8    10.726     5.586    0.40E-03    0.26E-03    0.10E-06
   0      9    10.726    12.382    0.25E-04    0.21E-05    0.37E-07
   0      9    10.726     6.622    0.42E-04    0.48E-05    0.77E-07
   1      9    10.726     7.935    0.27E-03    0.13E-04    0.16E-06
   1      9    10.726     2.425    0.23E-03    0.15E-04    0.14E-06
 Optimization of the real space projectors (new method)

[...]

   l    n(q)    QCUT    max X(q) W(low)/X(q) W(high)/X(q)  e(spline)
   0      8    10.645    20.381    0.38E-03    0.60E-03    0.15E-06
   0      8    10.645    15.268    0.40E-03    0.65E-03    0.17E-06
   1      7    10.645     5.964    0.30E-03    0.63E-03    0.18E-06
   1      7    10.645     5.382    0.24E-03    0.53E-03    0.16E-06
 Optimization of the real space projectors (new method)

 maximal supplied QI-value         = 25.13
 optimisation between [QCUT,QGAM] = [ 10.81, 21.61] = [ 32.71,130.83] Ry
 Optimized for a Real-space Cutoff    1.23 Angstroem

   l    n(q)    QCUT    max X(q) W(low)/X(q) W(high)/X(q)  e(spline)
   0      8    10.807    79.467    0.34E-03    0.68E-03    0.21E-06
   0      8    10.807    66.151    0.34E-03    0.67E-03    0.21E-06
   1      7    10.807    14.030    0.45E-03    0.13E-02    0.11E-05
   1      7    10.807     9.831    0.48E-03    0.13E-02    0.11E-05
  PAW_PBE Ga_d 06Jul2010                :
  PAW_PBE O 08Apr2002                   :
  PAW_PBE N 08Apr2002                   :

 POSCAR: Ga48 O72
  positions in direct lattice
  velocities in cartesian coordinates
 exchange correlation table for  LEXCH =        8
   RHO(1)=    0.500       N(1)  =     2000
   RHO(2)=  100.500       N(2)  =     4000

 ion  position               nearest neighbor table
   1  0.660  1.000  0.157-  85 1.95  79 1.96  83 1.96  67 1.98  61 2.08  65 2.08
   2  0.659  1.000  0.657-  86 1.95  80 1.95  84 1.95  68 2.02  62 2.08  66 2.08
   3  0.660  0.334  0.157-  87 1.95  79 1.96  81 1.96  69 1.98  61 2.08  63 2.08
   4  0.659  0.333  0.657-  88 1.95  80 1.95  82 1.95  70 2.02  62 2.08  64 2.08
   5  0.659  0.667  0.156-  89 1.94  81 1.95  83 1.95  71 2.02  63 2.06  65 2.06
   6  0.659  0.667  0.657-  90 1.94  82 1.95  84 1.95  72 2.03  64 2.07  66 2.07
   7  0.845  0.167  0.347- 120 1.85  73 2.00  75 2.00  61 2.05  67 2.15  69 2.15
   8  0.842  0.167  0.844-  91 1.94  74 1.95  76 1.95  62 2.03  68 2.08  70 2.08
   9  0.841  0.500  0.343-  92 1.94  75 1.95  77 1.96  63 2.04  69 2.05  71 2.08
  10  0.842  0.500  0.844-  93 1.94  76 1.95  78 1.95  64 2.03  70 2.07  72 2.08
  11  0.841  0.833  0.343-  94 1.94  73 1.95  77 1.96  65 2.04  67 2.05  71 2.08
  12  0.842  0.834  0.844-  95 1.94  74 1.95  78 1.95  66 2.03  68 2.07  72 2.08
  13  0.593  0.167  0.397-  80 1.84  55 1.85  57 1.85  61 1.87
  14  0.591  0.167  0.898-  79 1.84  56 1.85  58 1.85  62 1.87
  15  0.592  0.500  0.398-  82 1.84  59 1.85  57 1.85  63 1.87
  16  0.590  0.500  0.897-  81 1.83  60 1.85  58 1.85  64 1.87
  17  0.592  0.834  0.398-  84 1.84  59 1.85  55 1.85  65 1.87
  18  0.590  0.833  0.897-  83 1.83  60 1.85  56 1.85  66 1.87
  19  0.910  0.000  0.104-  49 1.84  53 1.85  74 1.85  67 1.86
  20  0.908  1.000  0.600-  73 1.84  50 1.85  54 1.85  68 1.88
  21  0.910  0.333  0.104-  49 1.84  51 1.85  76 1.85  69 1.86
  22  0.908  0.333  0.600-  75 1.84  50 1.85  52 1.85  70 1.88
  23  0.910  0.667  0.103-  78 1.85  51 1.85  53 1.85  71 1.87
  24  0.909  0.667  0.602-  77 1.84  52 1.85  54 1.85  72 1.88
  25  0.159  0.167  0.159-  49 1.94 114 1.97 116 1.97 102 2.03  96 2.07  98 2.07
  26  0.158  0.167  0.652- 115 1.95 117 1.95  50 1.95 103 2.04  97 2.11  99 2.11
  27  0.160  0.499  0.158-  51 1.95 116 1.96 118 1.96 104 2.03  98 2.05 100 2.08
  28  0.159  0.499  0.656- 117 1.93  52 1.95 119 1.95 105 2.03  99 2.08 101 2.09
  29  0.160  0.834  0.158-  53 1.95 114 1.96 118 1.96 106 2.03  96 2.05 100 2.08
  30  0.159  0.834  0.656- 115 1.93  54 1.95 119 1.95 107 2.03  97 2.08 101 2.09
  31  0.341  1.000  0.344- 112 1.95 108 1.95  55 1.95  96 2.00 102 2.08 106 2.08
  32  0.340  0.000  0.843-  56 1.95 109 1.95 113 1.96  97 2.01 107 2.07 103 2.07
  33  0.341  0.334  0.344- 110 1.95 108 1.95  57 1.95  98 2.00 102 2.08 104 2.08
  34  0.340  0.333  0.843-  58 1.95 109 1.95 111 1.96  99 2.01 105 2.07 103 2.07
  35  0.342  0.667  0.343-  59 1.94 110 1.95 112 1.95 100 2.02 104 2.07 106 2.07
  36  0.340  0.667  0.843-  60 1.94 111 1.95 113 1.95 101 2.02 105 2.07 107 2.07
  37  0.086  0.005  0.396- 120 1.81  94 1.87 115 1.88  96 1.92
  38  0.092  0.000  0.898- 114 1.84  91 1.85  95 1.85  97 1.87
  39  0.086  0.329  0.396- 120 1.81  92 1.87 117 1.88  98 1.92
  40  0.092  0.333  0.898- 116 1.84  91 1.85  93 1.85  99 1.87
  41  0.092  0.667  0.398-  92 1.84  94 1.84 119 1.85 100 1.88
  42  0.092  0.667  0.898- 118 1.84  93 1.85  95 1.85 101 1.87
  43  0.409  0.167  0.102- 109 1.84  85 1.85  87 1.85 102 1.87
  44  0.409  0.167  0.603- 108 1.84  86 1.85  88 1.85 103 1.87
  45  0.409  0.500  0.102- 111 1.84  89 1.84  87 1.85 104 1.87
  46  0.409  0.500  0.603- 110 1.84  90 1.85  88 1.85 105 1.87
  47  0.409  0.834  0.102- 113 1.84  89 1.84  85 1.85 106 1.87
  48  0.409  0.833  0.603- 112 1.84  90 1.85  86 1.85 107 1.87
  49  0.996  0.167  0.120-  19 1.84  21 1.84  25 1.94
  50  0.996  0.167  0.630-  20 1.85  22 1.85  26 1.95
  51  0.997  0.500  0.127-  23 1.85  21 1.85  27 1.95
  52  0.996  0.500  0.627-  24 1.85  22 1.85  28 1.95
  53  0.997  0.833  0.127-  23 1.85  19 1.85  29 1.95
  54  0.996  0.833  0.627-  24 1.85  20 1.85  30 1.95
  55  0.504  0.000  0.373-  17 1.85  13 1.85  31 1.95
  56  0.503  0.000  0.872-  18 1.85  14 1.85  32 1.95
  57  0.504  0.333  0.373-  15 1.85  13 1.85  33 1.95
  58  0.503  0.333  0.872-  16 1.85  14 1.85  34 1.95
  59  0.505  0.667  0.373-  15 1.85  17 1.85  35 1.94
  60  0.503  0.667  0.872-  16 1.85  18 1.85  36 1.94
[...]
 106  0.329  0.833  0.220-  47 1.87  29 2.03  35 2.07  31 2.08
 107  0.328  0.833  0.720-  48 1.87  30 2.03  36 2.07  32 2.07
 108  0.334  0.167  0.446-  44 1.84  31 1.95  33 1.95
 109  0.332  0.167  0.946-  43 1.84  32 1.95  34 1.95
 110  0.334  0.501  0.446-  46 1.84  33 1.95  35 1.95
 111  0.332  0.500  0.946-  45 1.84  36 1.95  34 1.96
 112  0.334  0.833  0.446-  48 1.84  31 1.95  35 1.95
 113  0.332  0.834  0.946-  47 1.84  36 1.95  32 1.96
 114  0.169  0.000  0.055-  38 1.84  29 1.96  25 1.97
 115  0.170  0.998  0.554-  37 1.88  30 1.93  26 1.95
 116  0.169  0.333  0.055-  40 1.84  27 1.96  25 1.97
 117  0.170  0.336  0.554-  39 1.88  28 1.93  26 1.95
 118  0.168  0.667  0.055-  42 1.84  27 1.96  29 1.96
 119  0.169  0.667  0.555-  41 1.85  28 1.95  30 1.95
 120  0.999  0.167  0.370-  37 1.81  39 1.81   7 1.85

  LATTYP: Found a simple monoclinic cell.
 ALAT       =    11.6348202465
 B/A-ratio  =     0.7858051831
 C/A-ratio  =     1.0554931797
 COS(beta)  =    -0.2379290539

  Lattice vectors:

 A1 = (   0.0000000000,  -2.7682617730, -11.3006977184)
 A2 = (  -9.1427020537,   0.0000000000,   0.0000000000)
 A3 = (   0.0000000000,  12.2804734172,   0.0000000000)

Analysis of symmetry for initial positions (statically):
 Subroutine PRICEL returns:
 Original cell was already a primitive cell.

 Routine SETGRP: Setting up the symmetry group for a
 simple monoclinic supercell.

 Subroutine GETGRP returns: Found  2 space group operations
 (whereof  1 operations were pure point group operations)
 out of a pool of  4 trial point group operations.

The static configuration has the point symmetry C_1 .
 The point group associated with its full space group is C_1h.

Analysis of symmetry for dynamics (positions and initial velocities):
 Subroutine PRICEL returns:
 Original cell was already a primitive cell.

 Routine SETGRP: Setting up the symmetry group for a
 simple monoclinic supercell.

 Subroutine GETGRP returns: Found  2 space group operations
 (whereof  1 operations were pure point group operations)
 out of a pool of  4 trial point group operations.

The dynamic configuration has the point symmetry C_1 .
 The point group associated with its full space group is C_1h.

 Subroutine INISYM returns: Found  2 space group operations
 (whereof  1 operations are pure point group operations),
 and found     1 'primitive' translations

                                     Primitive cell

  volume of cell :    1268.8052

  direct lattice vectors                    reciprocal lattice vectors
     0.000000000 12.280473417  0.000000000     0.000000000  0.081430085 -0.019947423
     9.142702054  0.000000000  0.000000000     0.109376855 -0.000000000  0.000000000
     0.000000000 -2.768261773-11.300697718     0.000000000  0.000000000 -0.088490111

  length of vectors
    12.280473417  9.142702054 11.634820246     0.083837691  0.109376855  0.088490111

  position of ions in fractional coordinates (direct lattice)
     0.659669860  0.999657928  0.156525401
     0.659471354  0.999942315  0.656951848
     0.659669860  0.333675405  0.156525401
     0.659471354  0.333391019  0.656951848
     0.658851388  0.666666667  0.156496411
     0.658884880  0.666666667  0.657251136
     0.844697053  0.166666667  0.346516243
     0.841727156  0.166666667  0.844213693
     0.841113412  0.499863786  0.343108886
     0.841509701  0.499703533  0.843779323
     0.841113412  0.833469548  0.343108886
     0.841509701  0.833629800  0.843779323
     0.592943819  0.166666667  0.397142385
     0.590844950  0.166666667  0.897561377
     0.591867071  0.499719571  0.397717932
     0.590140563  0.500000485  0.897042777
     0.591867071  0.833613763  0.397717932
     0.590140563  0.833332848  0.897042777
     0.909539368  0.000086947  0.103976960
     0.908108452  0.999997352  0.600416099
[...]
     52     -17.3939      2.00000
     53     -17.3804      2.00000
     54     -17.3787      2.00000
     55     -17.3786      2.00000
     56     -17.3761      2.00000
     57     -17.3648      2.00000
     58     -17.3542      2.00000
     59     -17.3384      2.00000
     60     -17.3151      2.00000
[...]
    619      16.1854      0.00000
    620      16.2860      0.00000
    621      16.3780      0.00000
    622      16.5050      0.00000
    623      16.6680      0.00000
    624      16.7672      0.00000
    625      16.9356      0.00000
    626      17.0057      0.00000
    627      17.0432      0.00000
    628      17.0958      0.00000
    629      17.2609      0.00000
    630      17.3259      0.00000
    631      17.4050      0.00000
    632      17.4507      0.00000
    633      17.6534      0.00000

 soft charge-density along one line, spin component            1
         0         1         2         3         4         5         6         7         8         9
 total charge-density along one line

------------------------ aborting loop because EDIFF is reached ----------------------------------------

  FORCE on cell =-STRESS in cart. coord.  units (eV):
  Direction    XX          YY          ZZ          XY          YZ          ZX
  Alpha Z  5530.94813  5530.94813  5530.94813
  Ewald  -25119.22252-32258.96496-31410.31337     0.00000 -1748.42678    -0.00000
  Hartree 14067.69317  9582.12612 10174.25673    -0.00002 -1189.59793    -0.00000
  E(xc)   -3925.04408 -3927.71720 -3927.10227    -0.00000    -0.44753    -0.00000
  Local   -5867.47614  5601.13140  4128.70712     0.00007  2903.44014    -0.00002
  n-local  6791.04620  6736.64289  6748.30933     0.00010    -8.91648    -0.00004
  augment  5425.41562  5448.01700  5456.01924     0.00000     6.01630    -0.00000
  Kinetic 12408.58742 12605.74946 12614.84491    -0.00010    39.38724     0.00004
  Fock    -9347.17454 -9351.61916 -9347.86449     0.00001     0.06181     0.00004
  Total     -35.22675   -33.68633   -32.19465     0.00000     1.51678     0.00000
  in kB     -44.48241   -42.53724   -40.65364     0.00000     1.91530     0.00000

 VOLUME and BASIS-vectors are now :
  energy-cutoff  :      450.00
  volume of cell :     1268.81
      direct lattice vectors                 reciprocal lattice vectors
     0.000000000 12.280473417  0.000000000     0.000000000  0.081430085 -0.019947423
     9.142702054  0.000000000  0.000000000     0.109376855 -0.000000000  0.000000000
     0.000000000 -2.768261773-11.300697718     0.000000000  0.000000000 -0.088490111

  length of vectors
    12.280473417  9.142702054 11.634820246     0.083837691  0.109376855  0.088490111

 FORCES acting on ions:
    Electron-Ion                     Ewald-Force                    Non-Local-Force
   -.155E+02 0.436E+02 -.849E+02   0.154E+02 -.414E+02 0.886E+02   0.135E+00 -.186E+01 -.354E+01
   -.308E+01 0.397E+02 -.772E+02   0.309E+01 -.389E+02 0.819E+02   -.693E-02 -.621E+00 -.441E+01
   0.155E+02 0.436E+02 -.849E+02   -.154E+02 -.414E+02 0.886E+02   -.135E+00 -.186E+01 -.354E+01
   0.308E+01 0.397E+02 -.772E+02   -.309E+01 -.389E+02 0.819E+02   0.693E-02 -.621E+00 -.441E+01
   -.663E-04 0.331E+02 -.891E+02   0.678E-11 -.327E+02 0.931E+02   0.000E+00 -.329E+00 -.376E+01
   -.882E-04 0.346E+02 -.758E+02   0.583E-10 -.342E+02 0.806E+02   0.000E+00 -.304E+00 -.460E+01
   0.351E-03 -.534E+02 0.706E+02   0.349E-10 0.680E+02 -.769E+02   0.000E+00 -.138E+02 0.603E+01
   0.105E-03 -.446E+02 0.818E+02   0.296E-10 0.444E+02 -.866E+02   0.000E+00 0.110E+00 0.457E+01
   0.669E+01 -.633E+02 0.860E+02   -.727E+01 0.633E+02 -.904E+02   0.522E+00 -.133E+00 0.412E+01
   -.205E+01 -.487E+02 0.841E+02   0.169E+01 0.483E+02 -.889E+02   0.321E+00 0.274E+00 0.448E+01
   -.669E+01 -.633E+02 0.860E+02   0.727E+01 0.633E+02 -.904E+02   -.522E+00 -.133E+00 0.412E+01
   0.205E+01 -.487E+02 0.841E+02   -.169E+01 0.483E+02 -.889E+02   -.321E+00 0.274E+00 0.448E+01
   0.150E-03 -.415E+02 0.246E+02   0.602E-10 0.392E+02 -.260E+02   0.000E+00 0.203E+01 0.135E+01
   -.327E-04 -.502E+02 0.314E+02   0.594E-10 0.482E+02 -.335E+02   0.000E+00 0.171E+01 0.194E+01
   0.435E+01 -.412E+02 0.322E+02   -.420E+01 0.391E+02 -.333E+02   -.131E+00 0.195E+01 0.112E+01
   0.417E+01 -.525E+02 0.283E+02   -.407E+01 0.507E+02 -.307E+02   -.850E-01 0.164E+01 0.220E+01
   -.435E+01 -.412E+02 0.322E+02   0.420E+01 0.391E+02 -.333E+02   0.131E+00 0.195E+01 0.112E+01
   -.417E+01 -.525E+02 0.283E+02   0.407E+01 0.507E+02 -.307E+02   0.850E-01 0.164E+01 0.220E+01
   -.929E+01 0.387E+02 -.141E+02   0.923E+01 -.371E+02 0.155E+02   0.596E-01 -.141E+01 -.129E+01
   -.686E+01 0.225E+02 -.288E+02   0.667E+01 -.211E+02 0.310E+02   0.168E+00 -.125E+01 -.213E+01
   0.929E+01 0.387E+02 -.141E+02   -.923E+01 -.371E+02 0.155E+02   -.596E-01 -.141E+01 -.129E+01
   0.686E+01 0.225E+02 -.288E+02   -.667E+01 -.211E+02 0.310E+02   -.168E+00 -.125E+01 -.213E+01
   -.220E-03 0.384E+02 -.296E+02   0.329E-10 -.362E+02 0.310E+02   0.000E+00 -.189E+01 -.133E+01
   0.253E-04 0.343E+02 -.213E+02   0.320E-10 -.322E+02 0.233E+02   0.000E+00 -.187E+01 -.186E+01
   -.805E-04 0.561E+02 -.654E+02   0.551E-11 -.560E+02 0.693E+02   0.000E+00 0.154E-02 -.372E+01
   0.286E-03 0.509E+02 -.936E+02   0.341E-10 -.500E+02 0.995E+02   0.000E+00 -.727E+00 -.556E+01
   -.312E+01 0.512E+02 -.841E+02   0.226E+01 -.510E+02 0.876E+02   0.775E+00 -.117E+00 -.338E+01
   -.130E+01 0.546E+02 -.852E+02   0.196E+00 -.537E+02 0.909E+02   0.100E+01 -.730E+00 -.533E+01
   0.312E+01 0.512E+02 -.841E+02   -.226E+01 -.510E+02 0.876E+02   -.775E+00 -.117E+00 -.338E+01
   0.130E+01 0.546E+02 -.852E+02   -.196E+00 -.537E+02 0.909E+02   -.100E+01 -.730E+00 -.533E+01
   -.546E+01 -.311E+02 0.875E+02   0.551E+01 0.294E+02 -.918E+02   -.406E-01 0.141E+01 0.407E+01
   -.423E+01 -.344E+02 0.828E+02   0.429E+01 0.334E+02 -.869E+02   -.544E-01 0.803E+00 0.385E+01
   0.546E+01 -.311E+02 0.875E+02   -.551E+01 0.294E+02 -.918E+02   0.406E-01 0.141E+01 0.407E+01
   0.423E+01 -.344E+02 0.828E+02   -.429E+01 0.334E+02 -.869E+02   0.544E-01 0.803E+00 0.385E+01
   -.169E-03 -.275E+02 0.831E+02   0.197E-10 0.272E+02 -.875E+02   0.000E+00 0.200E+00 0.421E+01
   -.655E-04 -.293E+02 0.853E+02   0.133E-10 0.288E+02 -.894E+02   0.000E+00 0.360E+00 0.381E+01
   -.972E+01 -.495E+02 0.250E+02   0.210E+02 0.390E+02 -.240E+02   -.106E+02 0.979E+01 -.915E+00
   0.139E+01 -.445E+02 0.266E+02   -.124E+01 0.426E+02 -.284E+02   -.129E+00 0.165E+01 0.164E+01
   0.972E+01 -.495E+02 0.250E+02   -.210E+02 0.390E+02 -.240E+02   0.106E+02 0.979E+01 -.915E+00
   -.139E+01 -.445E+02 0.266E+02   0.124E+01 0.426E+02 -.284E+02   0.129E+00 0.165E+01 0.164E+01
   0.405E-04 -.597E+02 0.293E+02   0.315E-10 0.558E+02 -.305E+02   0.000E+00 0.344E+01 0.125E+01
   -.459E-03 -.431E+02 0.277E+02   0.265E-10 0.410E+02 -.294E+02   0.000E+00 0.186E+01 0.160E+01
   0.437E-04 0.513E+02 -.290E+02   0.304E-10 -.492E+02 0.304E+02   0.000E+00 -.186E+01 -.132E+01
   0.197E-03 0.531E+02 -.369E+02   0.660E-10 -.511E+02 0.389E+02   0.000E+00 -.178E+01 -.181E+01
   0.601E+01 0.534E+02 -.318E+02   -.573E+01 -.515E+02 0.332E+02   -.242E+00 -.171E+01 -.129E+01
   0.452E+01 0.558E+02 -.376E+02   -.438E+01 -.536E+02 0.395E+02   -.126E+00 -.194E+01 -.179E+01
   -.601E+01 0.534E+02 -.318E+02   0.573E+01 -.515E+02 0.332E+02   0.242E+00 -.171E+01 -.129E+01
   -.452E+01 0.558E+02 -.376E+02   0.438E+01 -.536E+02 0.395E+02   0.126E+00 -.194E+01 -.179E+01
   -.192E-04 -.202E+02 0.607E+01   0.280E-10 0.282E+02 -.677E+01   0.000E+00 -.671E+01 0.624E+00
   0.255E-03 -.220E+02 0.226E+02   0.801E-11 0.290E+02 -.283E+02   0.000E+00 -.595E+01 0.478E+01
   0.156E+01 -.206E+02 0.142E+02   -.175E+01 0.281E+02 -.175E+02   0.158E+00 -.630E+01 0.285E+01
   0.224E+01 -.212E+02 0.184E+02   -.243E+01 0.285E+02 -.226E+02   0.166E+00 -.615E+01 0.356E+01
   -.156E+01 -.206E+02 0.142E+02   0.175E+01 0.281E+02 -.175E+02   -.158E+00 -.630E+01 0.285E+01
   -.224E+01 -.212E+02 0.184E+02   0.243E+01 0.285E+02 -.226E+02   -.166E+00 -.615E+01 0.356E+01
   -.422E+01 0.237E+02 -.157E+02   0.444E+01 -.314E+02 0.194E+02   -.194E+00 0.651E+01 -.320E+01
   -.243E+01 0.185E+02 -.134E+02   0.251E+01 -.261E+02 0.172E+02   -.654E-01 0.638E+01 -.320E+01
   0.422E+01 0.237E+02 -.157E+02   -.444E+01 -.314E+02 0.194E+02   0.194E+00 0.651E+01 -.320E+01
   0.243E+01 0.185E+02 -.134E+02   -.251E+01 -.261E+02 0.172E+02   0.654E-01 0.638E+01 -.320E+01
   -.393E-04 0.193E+02 -.131E+02   0.317E-10 -.264E+02 0.168E+02   0.000E+00 0.603E+01 -.308E+01
   -.239E-05 0.168E+02 -.140E+02   0.320E-10 -.241E+02 0.179E+02   0.000E+00 0.619E+01 -.331E+01
[...]
   -.817E+00 -.597E+02 -.401E+02   0.784E+00 0.574E+02 0.356E+02   0.303E-01 0.192E+01 0.380E+01
   0.126E-03 0.127E+03 0.587E+02   0.135E-10 -.139E+03 -.550E+02   0.000E+00 0.106E+02 -.316E+01
   0.373E-04 0.122E+03 0.629E+02   0.865E-11 -.135E+03 -.594E+02   0.000E+00 0.105E+02 -.289E+01
   0.202E+01 0.126E+03 0.602E+02   -.197E+01 -.138E+03 -.564E+02   -.452E-01 0.105E+02 -.317E+01
   0.141E+01 0.124E+03 0.626E+02   -.149E+01 -.137E+03 -.591E+02   0.695E-01 0.106E+02 -.297E+01
   -.202E+01 0.126E+03 0.602E+02   0.197E+01 -.138E+03 -.564E+02   0.452E-01 0.105E+02 -.317E+01
   -.141E+01 0.124E+03 0.626E+02   0.149E+01 -.137E+03 -.591E+02   -.695E-01 0.106E+02 -.297E+01
   -.285E+01 -.119E+03 -.606E+02   0.336E+01 0.131E+03 0.567E+02   -.435E+00 -.106E+02 0.337E+01
   0.509E+00 -.123E+03 -.848E+02   -.698E+00 0.136E+03 0.848E+02   0.152E+00 -.110E+02 0.750E-03
   0.285E+01 -.119E+03 -.606E+02   -.336E+01 0.131E+03 0.567E+02   0.435E+00 -.106E+02 0.337E+01
   -.509E+00 -.123E+03 -.848E+02   0.698E+00 0.136E+03 0.848E+02   -.152E+00 -.110E+02 0.750E-03
   -.707E-04 -.116E+03 -.614E+02   0.398E-12 0.128E+03 0.575E+02   0.000E+00 -.105E+02 0.330E+01
   -.200E-03 -.120E+03 -.677E+02   0.542E-11 0.133E+03 0.645E+02   0.000E+00 -.108E+02 0.270E+01
   0.388E-03 0.262E+01 -.191E+02   0.574E-11 -.660E+01 0.230E+02   0.000E+00 0.360E+01 -.360E+01
   0.349E-03 -.287E+01 0.510E+01   -.151E-13 0.253E-12 -.739E-12   -.222E-15 0.282E+01 -.496E+01

 POSITION                                       TOTAL-FORCE (eV/Angst)
      9.13957      7.66775     -1.76885        -0.002143      0.125270     -0.018485
      9.14217      6.28001     -7.42401         0.002698      0.082114      0.019631
      3.05069      7.66775     -1.76885         0.002143      0.125270     -0.018485
      3.04809      6.28001     -7.42401        -0.002698      0.082114      0.019631
      6.09513      7.65778     -1.76852         0.000000      0.069468     -0.014821
      6.09513      6.27198     -7.42740         0.000000      0.073217      0.019737
      1.52378      9.41403     -3.91588         0.000000     -0.008896     -0.032894
      1.52378      7.99980     -9.54020         0.000000     -0.059974     -0.026682
      4.57011      9.37946     -3.87737        -0.027658     -0.076675      0.005862
      4.56864      7.99834     -9.53530        -0.012506     -0.069513     -0.017706
      7.62016      9.37946     -3.87737         0.027658     -0.076675      0.005862
      7.62163      7.99834     -9.53530         0.012506     -0.069513     -0.017706
      1.52378      6.18224     -4.48799         0.000000     -0.021948      0.011381
      1.52378      4.77117    -10.14307         0.000000     -0.018858      0.003876
      4.56879      6.16742     -4.49449         0.004552     -0.020193      0.024909
      4.57136      4.76396    -10.13721         0.002695     -0.015661     -0.002972
      7.62148      6.16742     -4.49449        -0.004552     -0.020193      0.024909
      7.61891      4.76396    -10.13721        -0.002695     -0.015661     -0.002972
      0.00079     10.88174     -1.17501         0.005117      0.023291     -0.010292
      9.14268      9.48989     -6.78512         0.001512      0.003097     -0.019136
      3.04677     10.88174     -1.17501        -0.005117      0.023291     -0.010292
      3.04759      9.48989     -6.78512        -0.001512      0.003097     -0.019136
      6.09513     10.88535     -1.16576         0.000000      0.024295     -0.022534
      6.09513      9.49249     -6.79758         0.000000      0.021009     -0.007545
      1.52378      1.51341     -1.79905         0.000000      0.052647      0.014889
      1.52378      0.13709     -7.37011         0.000000      0.059793      0.052827
      4.56523      1.52852     -1.78443        -0.025304      0.065457     -0.022696
      4.56598      0.13713     -7.41085        -0.024142      0.080968      0.045297
      7.62504      1.52852     -1.78443         0.025304      0.065457     -0.022696
      7.62429      0.13713     -7.41085         0.024142      0.080968      0.045297
      9.14108      3.23733     -3.88648         0.005075     -0.107739     -0.010681
      0.00227      1.84271     -9.52351         0.001040     -0.087780      0.002024
      3.04918      3.23733     -3.88648        -0.005075     -0.107739     -0.010681
      3.04530      1.84271     -9.52351        -0.001040     -0.087780      0.002024
      6.09513      3.25353     -3.87946         0.000000     -0.074397     -0.014016
      6.09513      1.84586     -9.52898         0.000000     -0.072488      0.006334
      0.04220     -0.04204     -4.47769        -0.000520     -0.013061      0.006131
      0.00354     -1.36049    -10.14943         0.007887     -0.027095      0.018182
      3.00537     -0.04204     -4.47769         0.000520     -0.013061      0.006131
      3.04403     -1.36049    -10.14943        -0.007887     -0.027095      0.018182
      6.09513      0.02544     -4.49813         0.000000     -0.046677      0.013980
      6.09513     -1.36226    -10.15193         0.000000     -0.025249      0.016559
      1.52378      4.73585     -1.15798         0.000000      0.025303     -0.020440
      1.52378      3.35658     -6.81141         0.000000      0.023146     -0.002693
      4.56899      4.74518     -1.15575         0.007487      0.018651     -0.024309
      4.57060      3.35447     -6.81343         0.005034      0.025568     -0.005988
      7.62128      4.74518     -1.15575        -0.007487      0.018651     -0.024309
      7.61967      3.35447     -6.81343        -0.005034      0.025568     -0.005988
      1.52378     11.90462     -1.35772         0.000000     -0.197291      0.038758
      1.52378     10.48310     -7.11852         0.000000     -0.180877      0.180330
      4.57264     11.89410     -1.43700         0.004160     -0.191334      0.115112
      4.57100     10.49672     -7.08767         0.005175     -0.187466      0.144143
      7.61763     11.89410     -1.43700        -0.004160     -0.191334      0.115112
      7.61927     10.49672     -7.08767        -0.005175     -0.187466      0.144143
      0.00420      5.16337     -4.21318        -0.008911      0.201910     -0.128631
      0.00275      3.76277     -9.85862        -0.002903      0.189702     -0.121837
      3.04337      5.16337     -4.21318         0.008911      0.201910     -0.128631
      3.04482      3.76277     -9.85862         0.002903      0.189702     -0.121837
      6.09513      5.16456     -4.21678         0.000000      0.183940     -0.124479
      6.09513      3.76170     -9.85375         0.000000      0.179822     -0.127815
[...]
      7.61305      3.43268     -2.48413        -0.002392      0.047411      0.131599
      7.61612      2.03432     -8.13997         0.004909      0.045168      0.120574
      1.52378      2.86484     -5.04210         0.000000      0.432111     -0.090472
      1.52378      1.46151    -10.68779         0.000000      0.426149     -0.076647
      4.57662      2.87243     -5.04176        -0.003957      0.425674     -0.088437
      4.56965      1.46112    -10.68875         0.002856      0.428683     -0.078053
      7.61365      2.87243     -5.04176         0.003957      0.425674     -0.088437
      7.62062      1.46112    -10.68875        -0.002856      0.428683     -0.078053
      0.00258      1.92499     -0.61622        -0.021171     -0.423395      0.097912
      9.12101      0.55769     -6.26070         0.011528     -0.463093     -0.041362
      3.04498      1.92499     -0.61622         0.021171     -0.423395      0.097912
      3.06926      0.55769     -6.26070        -0.011528     -0.463093     -0.041362
      6.09513      1.91712     -0.62082         0.000000     -0.422982      0.095396
      6.09513      0.54232     -6.26958         0.000000     -0.445131      0.059019
      1.52378     11.24726     -4.17803         0.000000      0.081966     -0.144333
    total drift:                                0.000349      0.008110     -0.073466

  FREE ENERGIE OF THE ION-ELECTRON SYSTEM (eV)
  free  energy   TOTEN  =      -982.50674386 eV

  energy  without entropy=     -982.50674386  energy(sigma->0) =     -982.50674386

 writing wavefunctions