 vasp.6.4.2 20Jul23 (build Nov 12 2023 22:16:35) complex
 executed on              LinuxNV date 2025.03.09  14:07:37
 OpenACC runtime initialized ...    4 GPUs detected

 INCAR:
   PREC = Normal
   ENCUT = 450
   NELM = 500
   IBRION = -1
   ISPIN = 1
   NSW = 0
   ISIF = 2
   EDIFF = 1E-5
   EDIFFG = -5E-3
   ISTART = 0
   ICHARG = 0
   ISMEAR = 1
   SIGMA = 0.2
   LWAVE = .T.
   LCHARG = .T.
   LREAL = Auto
   LPLANE = .TRUE.
   NPAR = 1
   KPAR = 4
   NCORE = 1
   ALGO = All
   LHFCALC = .TRUE.
   HSE06 = .TRUE.
   HFSCREEN = 0.18
   TIME = 0.4
   AEXX = 0.35
   LMAXFOCK = 4
   PRECFOCK = Fast

 POTCAR:    PAW_PBE Ga_d 06Jul2010
 POTCAR:    PAW_PBE Ga_d 06Jul2010
   VRHFIN =Ga: s2p1

   TITEL  = PAW_PBE Ga_d 06Jul2010
   POMASS =   69.723; ZVAL   =   13.000    mass and valenz
   ENMAX  =  282.691; ENMIN  =  212.018 eV

 Optimization of the real space projectors (new method)

 maximal supplied QI-value         = 16.25
 optimisation between [QCUT,QGAM] = [ 10.73, 21.61] = [ 32.22,130.83] Ry
 Optimized for a Real-space Cutoff    1.42 Angstroem

   l    n(q)    QCUT    max X(q) W(low)/X(q) W(high)/X(q)  e(spline)
   2      8    10.726     7.143    0.22E-03    0.16E-03    0.73E-07
   2      8    10.726     5.586    0.40E-03    0.26E-03    0.10E-06
   0      9    10.726    12.382    0.25E-04    0.21E-05    0.37E-07
   0      9    10.726     6.622    0.42E-04    0.48E-05    0.77E-07
   1      9    10.726     7.935    0.27E-03    0.13E-04    0.16E-06
   1      9    10.726     2.425    0.23E-03    0.15E-04    0.14E-06
  PAW_PBE Ga_d 06Jul2010                :

 POSCAR: Ga8
  positions in direct lattice
  velocities in cartesian coordinates
 exchange correlation table for  LEXCH =        8
   RHO(1)=    0.500       N(1)  =     2000
   RHO(2)=  100.500       N(2)  =     4000

 ion  position               nearest neighbor table
   1  0.000  0.337  0.401-   8 2.61   8 2.61   3 2.63   2 2.64   2 2.64   7 2.73   7 2.73
   2  0.000  0.163  0.901-   7 2.61   7 2.61   4 2.63   1 2.64   1 2.64   8 2.73   8 2.73
   3  0.000  0.663  0.599-   6 2.61   6 2.61   1 2.63   4 2.64   4 2.64   5 2.73   5 2.73
   4  0.000  0.837  0.099-   5 2.61   5 2.61   2 2.63   3 2.64   3 2.64   6 2.73   6 2.73
   5  0.500  0.837  0.401-   4 2.61   4 2.61   7 2.63   6 2.64   6 2.64   3 2.73   3 2.73
   6  0.500  0.663  0.901-   3 2.61   3 2.61   8 2.63   5 2.64   5 2.64   4 2.73   4 2.73
   7  0.500  0.163  0.599-   2 2.61   2 2.61   5 2.63   8 2.64   8 2.64   1 2.73   1 2.73
   8  0.500  0.337  0.099-   1 2.61   1 2.61   6 2.63   7 2.64   7 2.64   2 2.73   2 2.73

  LATTYP: Found a simple orthorhombic cell.
 ALAT       =     4.4320466607
 B/A-ratio  =     1.0278554985
 C/A-ratio  =     1.7143284496

  Lattice vectors:

 A1 = (  -4.4320466607,   0.0000000000,  -0.0000000000)
 A2 = (   0.0000000000,   0.0000000000,   4.5555035300)
 A3 = (  -0.0000000000,   7.5979836803,   0.0000000000)

Analysis of symmetry for initial positions (statically):
 Subroutine PRICEL returns following result:

  LATTYP: Found a base centered orthorhombic cell.
 ALAT       =     4.4320466607
 B/A-ratio  =     1.7143284496
 C/A-ratio  =     1.0278554985

[...]

   2 primitive cells build up your supercell.

 Routine SETGRP: Setting up the symmetry group for a
 simple orthorhombic supercell.

 Subroutine GETGRP returns: Found  8 space group operations
 (whereof  4 operations were pure point group operations)
 out of a pool of  8 trial point group operations.

The static configuration has the point symmetry C_2h.
 The point group associated with its full space group is D_2h.

Analysis of symmetry for dynamics (positions and initial velocities):
 Subroutine PRICEL returns following result:

  LATTYP: Found a base centered orthorhombic cell.
 ALAT       =     4.4320466607
 B/A-ratio  =     1.7143284496
 C/A-ratio  =     1.0278554985

  Lattice vectors:

 A1 = (   2.2160233304,  -3.7989918401,   0.0000000000)
 A2 = (   2.2160233304,   3.7989918401,   0.0000000000)
 A3 = (   0.0000000000,   0.0000000000,   4.5555035300)

   2 primitive cells build up your supercell.

 Routine SETGRP: Setting up the symmetry group for a
 simple orthorhombic supercell.

 Subroutine GETGRP returns: Found  8 space group operations
 (whereof  4 operations were pure point group operations)
 out of a pool of  8 trial point group operations.

The dynamic configuration has the point symmetry C_2h.
 The point group associated with its full space group is D_2h.

 Subroutine INISYM returns: Found  8 space group operations
 (whereof  4 operations are pure point group operations),
 and found     2 'primitive' translations

                                     Primitive cell

  volume of cell :      76.7024

  direct lattice vectors                    reciprocal lattice vectors
     2.216023330 -3.798991840  0.000000000     0.225629393 -0.131613865  0.000000000
     2.216023330  3.798991840  0.000000000     0.225629393  0.131613865 -0.000000000
     0.000000000  0.000000000  4.555503530    -0.000000000 -0.000000000  0.219514702

  length of vectors
     4.398078945  4.398078945  4.555503530     0.261210323  0.261210323  0.219514702

  position of ions in fractional coordinates (direct lattice)
     0.662795013  0.337204987  0.401079531
     0.837204987  0.162795013  0.901079531
     0.337204987  0.662795013  0.598920469
     0.162795013  0.837204987  0.098920469

  ion indices of the primitive-cell ions
   primitive index   ion index
                 1           1
                 2           2
                 3           3
                 4           4

 KPOINTS: Automatic mesh

Automatic generation of k-mesh.
 Grid dimensions read from file:
 generate k-points for:    2    2    2

 Generating k-lattice:

  Cartesian coordinates                     Fractional coordinates (reciprocal lattice)
     0.112814697  0.000000000 -0.000000000     0.500000000 -0.000000000  0.000000000
     0.000000000  0.065806933  0.000000000     0.000000000  0.500000000  0.000000000
    -0.000000000 -0.000000000  0.109757351     0.000000000 -0.000000000  0.500000000

  Length of vectors
     0.112814697  0.065806933  0.109757351

  Shift w.r.t. Gamma in fractional coordinates (k-lattice)
     0.000000000  0.000000000  0.000000000

 Subroutine IBZKPT returns following result:

 Found      8 irreducible k-points:

 Following reciprocal coordinates:
            Coordinates               Weight
  0.000000  0.000000  0.000000      1.000000
  0.500000  0.000000  0.000000      1.000000
  0.000000  0.500000  0.000000      1.000000
  0.500000  0.500000  0.000000      1.000000
  0.000000  0.000000  0.500000      1.000000
  0.500000  0.000000  0.500000      1.000000
  0.000000  0.500000  0.500000      1.000000
  0.500000  0.500000  0.500000      1.000000

 Following cartesian coordinates:
            Coordinates               Weight
  0.000000  0.000000  0.000000      1.000000
  0.112815  0.000000  0.000000      1.000000
  0.000000  0.065807  0.000000      1.000000
  0.112815  0.065807  0.000000      1.000000
  0.000000  0.000000  0.109757      1.000000
  0.112815  0.000000  0.109757      1.000000
  0.000000  0.065807  0.109757      1.000000
  0.112815  0.065807  0.109757      1.000000

 Subroutine IBZKPT_HF returns following result:

 Found      8 k-points in 1st BZ
 the following      8 k-points will be used (e.g. in the exchange kernel)
 Following reciprocal coordinates:   # in IRBZ
  0.000000  0.000000  0.000000    0.12500000   1 t-inv F
  0.500000  0.000000  0.000000    0.12500000   2 t-inv F
  0.000000  0.500000  0.000000    0.12500000   3 t-inv F
  0.500000  0.500000  0.000000    0.12500000   4 t-inv F
  0.000000  0.000000  0.500000    0.12500000   5 t-inv F
  0.500000  0.000000  0.500000    0.12500000   6 t-inv F
  0.000000  0.500000  0.500000    0.12500000   7 t-inv F
  0.500000  0.500000  0.500000    0.12500000   8 t-inv F

 SYSTEM =  unknown system
 POSCAR =  Ga8

 Startparameter for this run:
   NWRITE =      2    write-flag & timer
   PREC   = normal    normal or accurate (medium, high low for compatibility)
   ISTART =      0    job   : 0-new  1-cont  2-samecut
   ICHARG =      0    charge: 1-file 2-atom 10-const
   ISPIN  =      1    spin polarized calculation?
   LNONCOLLINEAR =      F non collinear calculations
   LSORBIT =      F    spin-orbit coupling
   INIWAV =      1    electr: 0-lowe 1-rand  2-diag
   LASPH  =      F    aspherical Exc in radial PAW
 Electronic Relaxation 1
   ENCUT  =  450.0 eV  33.07 Ry    5.75 a.u.   7.67 13.14  7.88*2*pi/ulx,y,z
   ENINI  =  450.0     initial cutoff
   ENAUG  =  490.7 eV  augmentation charge cutoff
   NELM   =    500;   NELMIN=  2; NELMDL= -5     # of ELM steps
   EDIFF  = 0.1E-04   stopping-criterion for ELM
   LREAL  =      T    real-space projection
   NLSPLINE    = F    spline interpolate recip. space projectors
   LCOMPAT=      F    compatible to vasp.4.4
   GGA_COMPAT  = T    GGA compatible to vasp.4.4-vasp.4.6
   LMAXPAW     = -100 max onsite density
   LMAXMIX     =    2 max onsite mixed and CHGCAR
   VOSKOWN=      0    Vosko Wilk Nusair interpolation
   ROPT   =   -0.00050
 Ionic relaxation
   EDIFFG = -.5E-02   stopping-criterion for IOM
   NSW    =      0    number of steps for IOM
   NBLOCK =      1;   KBLOCK =      1    inner block; outer block
   IBRION =     -1    ionic relax: 0-MD 1-quasi-New 2-CG
   NFREE  =      0    steps in history (QN), initial steepest desc. (CG)
   ISIF   =      2    stress and relaxation
   IWAVPR =     10    prediction:  0-non 1-charg 2-wave 3-comb
   ISYM   =      3    0-nonsym 1-usesym 2-fastsym
   LCORR  =      T    Harris-Foulkes like correction to forces

   POTIM  = 0.5000    time-step for ionic-motion
   TEIN   =    0.0    initial temperature
   TEBEG  =    0.0;   TEEND  =   0.0 temperature during run
   SMASS  =  -3.00    Nose mass-parameter (am)
   estimated Nose-frequenzy (Omega)   =  0.10E-29 period in steps = 0.13E+47 mass=  -0.449E-27a.u.
   SCALEE = 1.0000    scale energy and forces
   NPACO  =    256;   APACO  = 10.0  distance and # of slots for P.C.
   PSTRESS=    0.0 pullay stress

  Mass of Ions in am
   POMASS =  69.72
  Ionic Valenz
   ZVAL   =  13.00
  Atomic Wigner-Seitz radii
  virtual crystal weights
   VCA    =   1.00
   NELECT =     104.0000    total number of electrons
   NUPDOWN=      -1.0000    fix difference up-down

 DOS related values:
   EMIN   =  10.00;   EMAX   =-10.00  energy-range for DOS
   EFERMI =   0.00;   METHOD = LEGACY
   ISMEAR =     1;   SIGMA  =   0.20  broadening in eV -4-tet -1-fermi 0-gaus

 Electronic relaxation 2 (details)
   IALGO  =     58    algorithm
   LDIAG  =      T    sub-space diagonalisation (order eigenvalues)
   LSUBROT=      F    optimize rotation matrix (better conditioning)
   TURBO    =      0    0=normal 1=particle mesh
   IRESTART =      0    0=no restart 2=restart with 2 vectors
   NREBOOT  =      0    no. of reboots
   NMIN     =      0    reboot dimension
   EREF     =   0.00    reference energy to select bands
   IMIX   =      4    mixing-type and parameters
     AMIX     =   0.40;   BMIX     =  1.00
     AMIX_MAG =   1.60;   BMIX_MAG =  1.00
     AMIN     =   0.10
     WC   =   100.;   INIMIX=   1;  MIXPRE=   1;  MAXMIX= -45

[...]
   CSHIFT  =0.1000    complex shift for real part using Kramers Kronig
   OMEGAMAX=  -1.0    maximum frequency
   DEG_THRESHOLD= 0.2000000E-02 threshold for treating states as degnerate
   RTIME   =   -0.100 relaxation time in fs
  (WPLASMAI=    0.000 imaginary part of plasma frequency in eV, 0.658/RTIME)
   DFIELD  = 0.0000000 0.0000000 0.0000000 field for delta impulse in time

  Optional k-point grid parameters
   LKPOINTS_OPT  =     F    use optional k-point grid
   KPOINTS_OPT_MODE=     1    mode for optional k-point grid

 Orbital magnetization related:
   ORBITALMAG=     F  switch on orbital magnetization
   LCHIMAG   =     F  perturbation theory with respect to B field
   DQ        =  0.001000  dq finite difference perturbation B field
   LLRAUG    =     F  two centre corrections for induced B field
   LBONE     =     F  B-component reconstruction in AE one-centre
   LVGVCALC  =     T  calculate vGv susceptibility
   LVGVAPPL  =     F  apply vGv susceptibility instead of pGv for G=0

 Random number generation:
   RANDOM_GENERATOR = DEFAULT
   PCG_SEED         = not used

 Static calculation
 charge density and potential will be updated during run
 non-spin polarized calculation
 Conjugate gradient for all bands (Freysoldt, et al. PRB 79, 241103 (2009))
 preconditioned conjugated gradient
 perform sub-space diagonalisation
    before iterative eigenvector-optimisation
 modified Broyden-mixing scheme, WC =      100.0
 initial mixing is a Kerker type mixing with AMIX =  0.4000 and BMIX =      1.0000
 Hartree-type preconditioning will be used
 using additional bands            10
 real space projection scheme for non local part
 use partial core corrections
 no Harris-corrections to forces
 use gradient corrections
 use of overlap-Matrix (Vanderbilt PP)
 Methfessel and Paxton  Order N= 1 SIGMA  =   0.20

  energy-cutoff  :      450.00
  volume of cell :      153.40
      direct lattice vectors                 reciprocal lattice vectors
     4.432046661  0.000000000  0.000000000     0.225629393  0.000000000 -0.000000000
    -0.000000000  7.597983680  0.000000000     0.000000000  0.131613865  0.000000000
     0.000000000  0.000000000  4.555503530    -0.000000000 -0.000000000  0.219514702

[...]

 k-points in units of 2pi/SCALE and weight: Automatic mesh
   0.00000000  0.00000000  0.00000000       0.125
   0.11281470  0.00000000  0.00000000       0.125
   0.00000000  0.06580693  0.00000000       0.125
   0.11281470  0.06580693  0.00000000       0.125
   0.00000000  0.00000000  0.10975735       0.125
   0.11281470  0.00000000  0.10975735       0.125
   0.00000000  0.06580693  0.10975735       0.125
   0.11281470  0.06580693  0.10975735       0.125

 k-points in reciprocal lattice and weights: Automatic mesh
   0.00000000  0.00000000  0.00000000       0.125
   0.50000000  0.00000000  0.00000000       0.125
   0.00000000  0.50000000  0.00000000       0.125
   0.50000000  0.50000000  0.00000000       0.125
   0.00000000  0.00000000  0.50000000       0.125
   0.50000000  0.00000000  0.50000000       0.125
   0.00000000  0.50000000  0.50000000       0.125
   0.50000000  0.50000000  0.50000000       0.125

 position of ions in fractional coordinates (direct lattice)
   0.00000000  0.33720499  0.40107953
   0.00000000  0.16279501  0.90107953
   0.00000000  0.66279501  0.59892047
   0.00000000  0.83720499  0.09892047
   0.50000000  0.83720499  0.40107953
   0.50000000  0.66279501  0.90107953
   0.50000000  0.16279501  0.59892047
   0.50000000  0.33720499  0.09892047

 position of ions in cartesian coordinates  (Angst):
  -0.00000000  2.56207799  1.82711922
  -0.00000000  1.23691385  4.10487099
  -0.00000000  5.03590569  2.72838431
  -0.00000000  6.36106983  0.45063254
   2.21602333  6.36106983  1.82711922
   2.21602333  5.03590569  4.10487099
   2.21602333  1.23691385  2.72838431
   2.21602333  2.56207799  0.45063254

 k-point   1 :   0.0000 0.0000 0.0000  plane waves:    3339
 k-point   2 :   0.5000 0.0000 0.0000  plane waves:    3348
 k-point   3 :   0.0000 0.5000 0.0000  plane waves:    3314
 k-point   4 :   0.5000 0.5000 0.0000  plane waves:    3320
 k-point   5 :   0.0000 0.0000 0.5000  plane waves:    3352
 k-point   6 :   0.5000 0.0000 0.5000  plane waves:    3308
 k-point   7 :   0.0000 0.5000 0.5000  plane waves:    3340
 k-point   8 :   0.5000 0.5000 0.5000  plane waves:    3304

 maximum and minimum number of plane-waves per node :      3352     3304

 maximum number of plane-waves:      3352
 maximum index in each direction:
   IXMAX=    7   IYMAX=   13   IZMAX=    7
   IXMIN=   -8   IYMIN=  -13   IZMIN=   -8

 serial   3D FFT for wavefunctions
 parallel 3D FFT for charge:
    minimum data exchange during FFTs selected (reduces bandwidth)

 FFT grid for exact exchange (Hartree Fock)
  NGX = 18; NGY = 30; NGZ = 18

 Radii for the augmentation spheres in the non-local exchange
 for species   1 augmentation radius   1.392 (default was   1.031)
       energy cutoff for augmentation   1800.0
 Maximum index for augmentation-charges in exchange           717
  SETUP_FOCK is finished

 Broyden mixing: mesh for mixing (old mesh)
   NGX = 15   NGY = 27   NGZ = 15
  (NGX  = 48   NGY  = 80   NGZ  = 48)
  gives a total of   6075 points

 charge density for first step will be calculated from the start-wavefunctions

 Maximum index for non-local projection operator          1748
 Maximum index for augmentation-charges          5521 (set IRDMAX)

 initial charge from wavefunction
 First call to EWALD:  gamma=   0.331
 Maximum number of real-space cells 3x 2x 3
 Maximum number of reciprocal cells 2x 4x 2

--------------------------------------- Ionic step        1  -------------------------------------------

--------------------------------------- Iteration      1(   1)  ---------------------------------------

 eigenvalue-minimisations  :  1276
 total energy-change (2. order) :-0.8546412E+04  (-0.1075824E+05)
 number of electron     103.9999993 magnetization
 augmentation part       15.2602294 magnetization

 Free energy of the ion-electron system (eV)
  alpha Z        PSCENC =       563.37210189
  Ewald energy   TEWEN  =    -10075.62109696
  -Hartree energ DENC   =      -213.26787051
  -exchange      EXHF   =         0.00000000
  -V(xc)+E(xc)   XCENC  =       192.64815077
  PAW double counting   =      5085.59337777    -9690.31509403
  entropy T*S    EENTRO =         0.00178345
  eigenvalues    EBANDS =    -11580.49616460
  atomic energy  EATOM  =     17171.67323441
  free energy    TOTEN  =     -8546.41157782 eV

  energy without entropy =    -8546.41336127  energy(sigma->0) =    -8546.41217231
  exchange ACFDT corr.  =         0.00000000  see jH, gK, PRB 81, 115126

[...]

 eigenvalue-minimisations  :  1640
 total energy-change (2. order) : 0.5090840E+04  (-0.7852950E+01)
 number of electron     103.9999907 magnetization
 augmentation part       72.5521829 magnetization

[...]

 eigenvalue-minimisations  :     0
 total energy-change (2. order) : 0.7344383E+04  (-0.1542343E+04)
 number of electron     103.9999946 magnetization
 augmentation part       69.6515185 magnetization

[...]

--------------------------------------- Iteration      1(  43)  ---------------------------------------

 eigenvalue-minimisations  :     0
 total energy-change (2. order) :-0.6980177E-05  (-0.4108893E-05)
 number of electron     103.9999961 magnetization
 augmentation part       67.8386460 magnetization

 Free energy of the ion-electron system (eV)
  alpha Z        PSCENC =       563.37210189
  Ewald energy   TEWEN  =    -10075.62109696
  -Hartree energ DENC   =     -4638.56833003
  -exchange      EXHF   =       385.00025051
  -V(xc)+E(xc)   XCENC  =       229.46453027
  PAW double counting   =     14089.47169509   -16631.97213446
  entropy T*S    EENTRO =         0.01345881
  eigenvalues    EBANDS =     -1120.20145664
  atomic energy  EATOM  =     17171.67323441
  free energy    TOTEN  =       -27.36773252 eV

  energy without entropy =      -27.38119134  energy(sigma->0) =      -27.37221879
  exchange ACFDT corr.  =         0.00738278  see jH, gK, PRB 81, 115126

  average scaling for gradient   0.5415

 average (electrostatic) potential at core
  the test charge radii are     1.0314
  (the norm of the test charge is              1.0000)
       1 -55.3357       2 -55.3339       3 -55.3362       4 -55.3336       5 -55.3325
       6 -55.3372       7 -55.3351       8 -55.3348

 E-fermi :   4.9033     XC(G=0):  -8.0266     alpha+bet :-11.4379

 Fermi energy:         4.9033182611

 k-point     1 :       0.0000    0.0000    0.0000
  band No.  band energies     occupation
      1     -14.1732      2.00000
      2     -14.1542      2.00000
      3     -14.1500      2.00000
      4     -14.1335      2.00000
      5     -14.1323      2.00000
      6     -14.0985      2.00000
      7     -14.0975      2.00000
      8     -14.0950      2.00000
      9     -14.0813      2.00000
     10     -14.0748      2.00000
     11     -14.0724      2.00000
     12     -14.0590      2.00000
     13     -13.9578      2.00000
     14     -13.9569      2.00000
     15     -13.9485      2.00000
     16     -13.9480      2.00000
     17     -13.9375      2.00000
     18     -13.9290      2.00000
     19     -13.9168      2.00000
     20     -13.9109      2.00000
     21     -13.9007      2.00000
     22     -13.8756      2.00000
     23     -13.8625      2.00000
     24     -13.8566      2.00000
     25     -13.8427      2.00000
     26     -13.8348      2.00000
     27     -13.8139      2.00000
     28     -13.7760      2.00000
     29     -13.7740      2.00000
     30     -13.7602      2.00000
     31     -13.7508      2.00000
     32     -13.7317      2.00000
     33     -13.7275      2.00000
     34     -13.7228      2.00000
     35     -13.7123      2.00000
     36     -13.6977      2.00000
     37     -13.6912      2.00000
     38     -13.6244      2.00000
     39     -13.5981      2.00000
     40     -13.5901      2.00000
     41      -8.1419      2.00000
     42      -6.2529      2.00000
     43      -3.3335      2.00000
     44       0.1562      2.00000
     45       0.2424      2.00000
     46       0.7140      2.00000
     47       0.8261      2.00000
     48       2.4525      2.00000
     49       2.7472      2.00000
     50       2.7641      2.00000
     51       3.5373      2.00000
     52       4.4809      2.01164
     53       6.4215     -0.00000
     54       6.5682     -0.00000
     55       6.5913     -0.00000
     56       6.7041     -0.00000
     57       6.7075     -0.00000
     58       9.6140     -0.00000
     59       9.7298     -0.00000
     60       9.8549     -0.00000
     61      11.2023      0.00000
     62      11.4939      0.00000

[...]

 k-point     8 :       0.5000    0.5000    0.5000
  band No.  band energies     occupation
      1     -14.1534      2.00000
      2     -14.1534      2.00000
      3     -14.1517      2.00000
      4     -14.1517      2.00000
      5     -14.1269      2.00000
      6     -14.1269      2.00000
      7     -14.1258      2.00000
      8     -14.1258      2.00000
      9     -14.0867      2.00000
     10     -14.0867      2.00000
     11     -14.0860      2.00000
     12     -14.0859      2.00000
     13     -14.0853      2.00000
     14     -14.0853      2.00000
     15     -14.0841      2.00000
     16     -14.0841      2.00000
     17     -13.8652      2.00000
     18     -13.8652      2.00000
     19     -13.8642      2.00000
     20     -13.8641      2.00000
     21     -13.8554      2.00000
     22     -13.8554      2.00000
     23     -13.8547      2.00000
     24     -13.8546      2.00000
     25     -13.7638      2.00000
     26     -13.7637      2.00000
     27     -13.7634      2.00000
     28     -13.7634      2.00000
     29     -13.7552      2.00000
     30     -13.7552      2.00000
     31     -13.7541      2.00000
     32     -13.7541      2.00000
     33     -13.6631      2.00000
     34     -13.6631      2.00000
     35     -13.6625      2.00000
     36     -13.6625      2.00000
     37     -13.6197      2.00000
     38     -13.6197      2.00000
     39     -13.6184      2.00000
     40     -13.6184      2.00000
     41      -3.4407      2.00000
     42      -3.4406      2.00000
     43      -3.4396      2.00000
     44      -3.4395      2.00000
     45      -2.5835      2.00000
     46      -2.5835      2.00000
     47      -2.5819      2.00000
     48      -2.5818      2.00000
     49       3.3469      2.00000
     50       3.3471      2.00000
     51       3.3473      2.00000
     52       3.3474      2.00000
     53       6.1225     -0.00000
     54       6.1225     -0.00000
     55       6.1242     -0.00000
     56       6.1242     -0.00000
     57      13.9692      0.00000
     58      13.9693      0.00000
     59      13.9793      0.00000
     60      13.9852      0.00000
     61      13.9923      0.00000
     62      13.9923      0.00000

 soft charge-density along one line, spin component            1
         0         1         2         3         4         5         6         7         8         9
 total charge-density along one line

------------------------ aborting loop because EDIFF is reached ----------------------------------------

  FORCE on cell =-STRESS in cart. coord.  units (eV):
  Direction    XX          YY          ZZ          XY          YZ          ZX
  Alpha Z   563.37210   563.37210   563.37210
  Ewald   -2816.29772 -4192.38315 -3066.95774     0.00000    -0.00000    -0.00000
  Hartree  1933.51130   947.95972  1757.09783     0.00002    -0.00014    -0.00013
  E(xc)    -413.51282  -413.52732  -413.49502     0.00000    -0.00000    -0.00000
  Local    -609.49974  1767.63202  -175.80489    -0.00012     0.00043     0.00016
  n-local  1348.20951  1338.37009  1345.41751     0.00009    -0.00016     0.00004
  augment   831.43421   826.40565   828.69579    -0.00000    -0.00007     0.00002
  Kinetic   516.72944   495.48014   502.53089     0.00011     0.00002     0.00014
  Fock    -1339.95793 -1342.47220 -1340.44230    -0.00002    -0.00004     0.00006
  Total      13.98836    -9.16294     0.41417     0.00000    -0.00000     0.00000
  in kB     146.09601   -95.69879     4.32560     0.00000    -0.00000     0.00000

 VOLUME and BASIS-vectors are now :
  energy-cutoff  :      450.00
  volume of cell :      153.40
      direct lattice vectors                 reciprocal lattice vectors
     4.432046661  0.000000000  0.000000000     0.225629393  0.000000000 -0.000000000
    -0.000000000  7.597983680  0.000000000     0.000000000  0.131613865  0.000000000
     0.000000000  0.000000000  4.555503530    -0.000000000 -0.000000000  0.219514702

  length of vectors
     4.432046661  7.597983680  4.555503530     0.225629393  0.131613865  0.219514702

 FORCES acting on ions:
    Electron-Ion                     Ewald-Force                    Non-Local-Force
   0.624E-03 -.123E+03 -.199E+02   -.122E-12 0.124E+03 0.200E+02   0.906E-16 -.138E+01 -.124E+00
   -.238E-03 0.123E+03 -.199E+02   0.108E-13 -.124E+03 0.200E+02   -.905E-16 0.138E+01 -.124E+00
   0.413E-03 0.123E+03 0.198E+02   0.120E-12 -.124E+03 -.200E+02   -.906E-16 0.138E+01 0.124E+00
   -.276E-03 -.123E+03 0.201E+02   0.529E-15 0.124E+03 -.200E+02   0.905E-16 -.138E+01 0.124E+00
   0.293E-03 -.123E+03 -.200E+02   -.124E-12 0.124E+03 0.200E+02   0.905E-16 -.138E+01 -.124E+00
   -.337E-03 0.123E+03 -.198E+02   -.517E-15 -.124E+03 0.200E+02   -.906E-16 0.138E+01 -.124E+00
   0.147E-03 0.123E+03 0.200E+02   0.118E-12 -.124E+03 -.200E+02   -.905E-16 0.138E+01 0.124E+00
   -.529E-03 -.123E+03 0.199E+02   -.111E-13 0.124E+03 -.200E+02   0.906E-16 -.138E+01 0.124E+00
   0.100E-03 -.496E-01 -.336E-03   -.866E-14 0.000E+00 0.142E-13   0.129E-19 0.222E-15 -.139E-16

 POSITION                                       TOTAL-FORCE (eV/Angst)
     -0.00000      2.56208      1.82712         0.000000     -0.144667     -0.065582
     -0.00000      1.23691      4.10487        -0.000000      0.144667     -0.065582
     -0.00000      5.03591      2.72838        -0.000000      0.144667      0.065582
     -0.00000      6.36107      0.45063         0.000000     -0.144667      0.065582
      2.21602      6.36107      1.82712         0.000000     -0.144667     -0.065582
      2.21602      5.03591      4.10487        -0.000000      0.144667     -0.065582
      2.21602      1.23691      2.72838        -0.000000      0.144667      0.065582
      2.21602      2.56208      0.45063         0.000000     -0.144667      0.065582
    total drift:                                0.000100     -0.049627     -0.000336

  FREE ENERGIE OF THE ION-ELECTRON SYSTEM (eV)
  free  energy   TOTEN  =       -27.36773252 eV

  energy  without entropy=      -27.38119134  energy(sigma->0) =      -27.37221879

 writing wavefunctions