 vasp.6.4.2 20Jul23 (build Nov 12 2023 22:16:35) complex
 executed on              LinuxNV date 2025.03.22  11:13:38
 OpenACC runtime initialized ...    4 GPUs detected

 INCAR:
   PREC = Normal
   ENCUT = 450
   NELM = 500
   IBRION = -1
   ISPIN = 1
   NSW = 0
   ISIF = 2
   EDIFF = 1E-5
   EDIFFG = -5E-3
   ISTART = 0
   ICHARG = 0
   ISMEAR = 0
   SIGMA = 0.05
   LWAVE = .T.
   LCHARG = .T.
   LREAL = Auto
   LPLANE = .TRUE.
   NPAR = 1
   KPAR = 4
   NCORE = 1
   ALGO = All
   LHFCALC = .TRUE.
   HSE06 = .TRUE.
   HFSCREEN = 0.2
   TIME = 0.4
   AEXX = 0.32
   LMAXFOCK = 4
   PRECFOCK = Fast

 POTCAR:    PAW_PBE Ga_d 06Jul2010
 POTCAR:    PAW_PBE O 08Apr2002
 POTCAR:    PAW_PBE N 08Apr2002
 POTCAR:    PAW_PBE Ga_d 06Jul2010
   VRHFIN =Ga: s2p1

   TITEL  = PAW_PBE Ga_d 06Jul2010
   POMASS =   69.723; ZVAL   =   13.000    mass and valenz
   ENMAX  =  282.691; ENMIN  =  212.018 eV

   TITEL  = PAW_PBE O 08Apr2002
   POMASS =   16.000; ZVAL   =    6.000    mass and valenz
   ENMAX  =  400.000; ENMIN  =  300.000 eV

   TITEL  = PAW_PBE N 08Apr2002
   POMASS =   14.001; ZVAL   =    5.000    mass and valenz
   ENMAX  =  400.000; ENMIN  =  300.000 eV

 Optimization of the real space projectors (new method)

 maximal supplied QI-value         = 16.25
 optimisation between [QCUT,QGAM] = [ 10.73, 21.61] = [ 32.22,130.83] Ry
 Optimized for a Real-space Cutoff    1.42 Angstroem

   l    n(q)    QCUT    max X(q) W(low)/X(q) W(high)/X(q)  e(spline)
   2      8    10.726     7.143    0.22E-03    0.16E-03    0.73E-07
   2      8    10.726     5.586    0.40E-03    0.26E-03    0.10E-06
   0      9    10.726    12.382    0.25E-04    0.21E-05    0.37E-07
   0      9    10.726     6.622    0.42E-04    0.48E-05    0.77E-07
   1      9    10.726     7.935    0.27E-03    0.13E-04    0.16E-06
   1      9    10.726     2.425    0.23E-03    0.15E-04    0.14E-06
 Optimization of the real space projectors (new method)

[...]

   l    n(q)    QCUT    max X(q) W(low)/X(q) W(high)/X(q)  e(spline)
   0      8    10.645    20.381    0.38E-03    0.60E-03    0.15E-06
   0      8    10.645    15.268    0.40E-03    0.65E-03    0.17E-06
   1      7    10.645     5.964    0.30E-03    0.63E-03    0.18E-06
   1      7    10.645     5.382    0.24E-03    0.53E-03    0.16E-06
 Optimization of the real space projectors (new method)

 maximal supplied QI-value         = 25.13
 optimisation between [QCUT,QGAM] = [ 10.81, 21.61] = [ 32.71,130.83] Ry
 Optimized for a Real-space Cutoff    1.23 Angstroem

   l    n(q)    QCUT    max X(q) W(low)/X(q) W(high)/X(q)  e(spline)
   0      8    10.807    79.467    0.34E-03    0.68E-03    0.21E-06
   0      8    10.807    66.151    0.34E-03    0.67E-03    0.21E-06
   1      7    10.807    14.030    0.45E-03    0.13E-02    0.11E-05
   1      7    10.807     9.831    0.48E-03    0.13E-02    0.11E-05
  PAW_PBE Ga_d 06Jul2010                :
  PAW_PBE O 08Apr2002                   :
  PAW_PBE N 08Apr2002                   :

 POSCAR: Ga48 O72
  positions in direct lattice
  velocities in cartesian coordinates
 exchange correlation table for  LEXCH =        8
   RHO(1)=    0.500       N(1)  =     2000
   RHO(2)=  100.500       N(2)  =     4000

 ion  position               nearest neighbor table
   1  0.659  0.000  0.157-  85 1.94  83 1.95  79 1.95  67 2.02  61 2.07  65 2.07
   2  0.659  0.000  0.657-  86 1.95  84 1.95  80 1.95  68 2.02  62 2.08  66 2.08
   3  0.660  0.334  0.156-  87 1.94  81 1.95  79 1.95  69 2.02  63 2.07  61 2.08
   4  0.659  0.333  0.657-  88 1.94  82 1.95  80 1.95  70 2.02  62 2.08  64 2.08
   5  0.660  0.666  0.156-  89 1.94  81 1.95  83 1.95  71 2.02  63 2.07  65 2.08
   6  0.659  0.667  0.657-  90 1.94  82 1.95  84 1.95  72 2.02  66 2.08  64 2.08
   7  0.840  0.167  0.344-  91 1.93  73 1.95  75 1.95  61 2.02  69 2.08  67 2.08
   8  0.841  0.167  0.843-  92 1.94  76 1.95  74 1.95  62 2.02  70 2.07  68 2.08
   9  0.841  0.500  0.344-  93 1.94  77 1.95  75 1.95  63 2.02  71 2.08  69 2.08
  10  0.841  0.500  0.843-  94 1.95  78 1.95  76 1.95  64 2.03  72 2.07  70 2.07
  11  0.840  0.833  0.344-  95 1.93  73 1.95  77 1.95  65 2.02  71 2.08  67 2.08
  12  0.841  0.833  0.843-  96 1.94  78 1.95  74 1.95  66 2.02  72 2.07  68 2.08
  13  0.591  0.166  0.397-  80 1.84  57 1.84  55 1.85  61 1.87
  14  0.591  0.167  0.898-  79 1.84  58 1.85  56 1.85  62 1.87
  15  0.592  0.500  0.398-  82 1.84  59 1.84  57 1.84  63 1.87
  16  0.591  0.500  0.898-  81 1.84  60 1.85  58 1.85  64 1.87
  17  0.591  0.834  0.397-  84 1.84  59 1.84  55 1.85  65 1.87
  18  0.591  0.833  0.898-  83 1.84  60 1.85  56 1.85  66 1.87
  19  0.908  0.000  0.102-  74 1.84  53 1.85  49 1.85  67 1.87
  20  0.909  0.000  0.602-  73 1.84  54 1.85  50 1.85  68 1.88
  21  0.908  0.334  0.102-  76 1.84  51 1.85  49 1.85  69 1.87
  22  0.909  0.333  0.602-  75 1.84  50 1.85  52 1.85  70 1.87
  23  0.908  0.666  0.102-  78 1.84  51 1.85  53 1.85  71 1.87
  24  0.909  0.667  0.602-  77 1.84  54 1.85  52 1.85  72 1.87
  25  0.161  0.165  0.160- 116 1.97  49 1.97 114 1.98 120 2.02 102 2.04  98 2.09
  26  0.158  0.166  0.656-  50 1.94 115 1.95 117 1.95 103 2.03  97 2.08  99 2.08
  27  0.159  0.500  0.158-  51 1.95 116 1.96 118 1.96 104 2.03 100 2.06  98 2.06
  28  0.159  0.500  0.657-  52 1.94 117 1.95 119 1.95 105 2.03 101 2.08  99 2.08
  29  0.161  0.835  0.160- 118 1.97  53 1.97 114 1.98 120 2.02 106 2.04 100 2.09
  30  0.158  0.834  0.656-  54 1.94 115 1.95 119 1.95 107 2.03  97 2.08 101 2.08
  31  0.340  0.000  0.341-  55 1.95 108 1.97 112 1.97 120 2.00 106 2.10 102 2.10
  32  0.341  0.000  0.843-  56 1.95 109 1.95 113 1.95  97 2.02 103 2.07 107 2.07
  33  0.342  0.334  0.343-  57 1.94 110 1.95 108 1.96  98 2.03 102 2.05 104 2.07
  34  0.341  0.334  0.843-  58 1.95 109 1.95 111 1.95  99 2.02 105 2.07 103 2.08
  35  0.342  0.666  0.343-  59 1.94 110 1.95 112 1.96 100 2.03 106 2.05 104 2.07
  36  0.341  0.666  0.843-  60 1.95 113 1.95 111 1.95 101 2.02 105 2.07 107 2.08
  37  0.091  0.000  0.395- 115 1.86  95 1.86  91 1.86 120 1.87
  38  0.090  0.000  0.897- 114 1.84  96 1.85  92 1.85  97 1.87
  39  0.090  0.333  0.398- 117 1.84  91 1.85  93 1.85  98 1.87
  40  0.091  0.333  0.899- 116 1.84  92 1.85  94 1.85  99 1.88
  41  0.090  0.667  0.398- 119 1.84  95 1.85  93 1.85 100 1.87
  42  0.091  0.667  0.899- 118 1.84  96 1.85  94 1.85 101 1.88
  43  0.410  0.167  0.102- 109 1.84  87 1.85  85 1.85 102 1.86
  44  0.409  0.167  0.603- 108 1.84  88 1.85  86 1.85 103 1.87
  45  0.409  0.500  0.102- 111 1.84  89 1.85  87 1.85 104 1.87
  46  0.409  0.500  0.602- 110 1.84  90 1.85  88 1.85 105 1.87
  47  0.410  0.833  0.102- 113 1.84  89 1.85  85 1.85 106 1.86
  48  0.409  0.833  0.603- 112 1.84  90 1.85  86 1.85 107 1.87
  49  0.996  0.167  0.126-  19 1.85  21 1.85  25 1.97
  50  0.996  0.167  0.628-  22 1.85  20 1.85  26 1.94
  51  0.996  0.500  0.128-  21 1.85  23 1.85  27 1.95
  52  0.996  0.500  0.627-  22 1.85  24 1.85  28 1.94
  53  0.996  0.833  0.126-  19 1.85  23 1.85  29 1.97
  54  0.996  0.833  0.628-  24 1.85  20 1.85  30 1.94
  55  0.503  0.000  0.372-  13 1.85  17 1.85  31 1.95
  56  0.503  0.000  0.872-  14 1.85  18 1.85  32 1.95
  57  0.504  0.334  0.373-  13 1.84  15 1.84  33 1.94
  58  0.503  0.333  0.873-  14 1.85  16 1.85  34 1.95
  59  0.504  0.666  0.373-  17 1.84  15 1.84  35 1.94
  60  0.503  0.667  0.873-  18 1.85  16 1.85  36 1.95
[...]
 106  0.331  0.829  0.219-  47 1.86  29 2.04  35 2.05  31 2.10
 107  0.327  0.834  0.719-  48 1.87  30 2.03  32 2.07  36 2.08
 108  0.334  0.167  0.446-  44 1.84  33 1.96  31 1.97
 109  0.332  0.167  0.945-  43 1.84  34 1.95  32 1.95
 110  0.333  0.500  0.446-  46 1.84  35 1.95  33 1.95
 111  0.332  0.500  0.946-  45 1.84  36 1.95  34 1.95
 112  0.334  0.833  0.446-  48 1.84  35 1.96  31 1.97
 113  0.332  0.833  0.945-  47 1.84  36 1.95  32 1.95
 114  0.170  0.000  0.052-  38 1.84  29 1.98  25 1.98
 115  0.166  0.000  0.554-  37 1.86  30 1.95  26 1.95
 116  0.167  0.332  0.056-  40 1.84  27 1.96  25 1.97
 117  0.168  0.333  0.554-  39 1.84  26 1.95  28 1.95
 118  0.167  0.668  0.056-  42 1.84  27 1.96  29 1.97
 119  0.168  0.667  0.554-  41 1.84  30 1.95  28 1.95
 120  0.173  0.000  0.278-  37 1.87  31 2.00  25 2.02  29 2.02

  LATTYP: Found a simple monoclinic cell.
 ALAT       =    11.6348202465
 B/A-ratio  =     0.7858051831
 C/A-ratio  =     1.0554931797
 COS(beta)  =    -0.2379290539

  Lattice vectors:

 A1 = (   0.0000000000,  -2.7682617730, -11.3006977184)
 A2 = (  -9.1427020537,   0.0000000000,   0.0000000000)
 A3 = (   0.0000000000,  12.2804734172,   0.0000000000)

Analysis of symmetry for initial positions (statically):
 Subroutine PRICEL returns:
 Original cell was already a primitive cell.

 Routine SETGRP: Setting up the symmetry group for a
 simple monoclinic supercell.

 Subroutine GETGRP returns: Found  2 space group operations
 (whereof  2 operations were pure point group operations)
 out of a pool of  4 trial point group operations.

The static configuration has the point symmetry C_1h.

Analysis of symmetry for dynamics (positions and initial velocities):
 Subroutine PRICEL returns:
 Original cell was already a primitive cell.

 Routine SETGRP: Setting up the symmetry group for a
 simple monoclinic supercell.

 Subroutine GETGRP returns: Found  2 space group operations
 (whereof  2 operations were pure point group operations)
 out of a pool of  4 trial point group operations.

The dynamic configuration has the point symmetry C_1h.

 Subroutine INISYM returns: Found  2 space group operations
 (whereof  2 operations are pure point group operations),
 and found     1 'primitive' translations

                                     Primitive cell

  volume of cell :    1268.8052

  direct lattice vectors                    reciprocal lattice vectors
     0.000000000 12.280473417  0.000000000     0.000000000  0.081430085 -0.019947423
     9.142702054  0.000000000  0.000000000     0.109376855 -0.000000000  0.000000000
     0.000000000 -2.768261773-11.300697718     0.000000000  0.000000000 -0.088490111

  length of vectors
    12.280473417  9.142702054 11.634820246     0.083837691  0.109376855  0.088490111

  position of ions in fractional coordinates (direct lattice)
     0.659389674  0.000000000  0.156603685
     0.659118758  0.000000000  0.656570147
     0.659639021  0.333595162  0.156439090
     0.659058155  0.333344687  0.656713761
     0.659639021  0.666404838  0.156439090
     0.659058155  0.666655313  0.656713761
     0.840184952  0.166841545  0.343967893
     0.840760470  0.166716316  0.843290064
     0.840858469  0.500000000  0.343640519
     0.841185052  0.500000000  0.843360001
     0.840184952  0.833158455  0.343967893
     0.840760470  0.833283684  0.843290064
     0.590526868  0.166494666  0.397261901
     0.591027271  0.166707669  0.897580789
     0.592298309  0.500000000  0.397933387
     0.591132502  0.500000000  0.897702376
     0.590526868  0.833505334  0.397261901
     0.591027271  0.833292331  0.897580789
     0.908076878  0.000000000  0.102409652
     0.908706582  0.000000000  0.602058359
     0.908441553  0.333569452  0.102429868
     0.908544034  0.333463523  0.602289120
     0.908441553  0.666430548  0.102429868
[...]
     52     -16.9731      2.00000
     53     -16.9706      2.00000
     54     -16.9652      2.00000
     55     -16.9641      2.00000
     56     -16.9474      2.00000
     57     -16.9002      2.00000
     58     -16.8937      2.00000
     59     -16.8880      2.00000
     60     -16.8852      2.00000
[...]
    619      15.7989      0.00000
    620      15.8785      0.00000
    621      16.0335      0.00000
    622      16.2072      0.00000
    623      16.2860      0.00000
    624      16.4522      0.00000
    625      16.5526      0.00000
    626      16.6143      0.00000
    627      16.7425      0.00000
    628      16.7993      0.00000
    629      16.9007      0.00000
    630      16.9210      0.00000
    631      17.0324      0.00000
    632      17.1604      0.00000
    633      17.2800      0.00000

 soft charge-density along one line, spin component            1
         0         1         2         3         4         5         6         7         8         9
 total charge-density along one line

------------------------ aborting loop because EDIFF is reached ----------------------------------------

  FORCE on cell =-STRESS in cart. coord.  units (eV):
  Direction    XX          YY          ZZ          XY          YZ          ZX
  Alpha Z  5530.94813  5530.94813  5530.94813
  Ewald  -25076.50438-32319.01288-31372.37158     0.00000 -1735.97434    -0.00000
  Hartree 14097.46408  9551.44373 10178.59905    -0.00046 -1188.58371     0.00168
  E(xc)   -4098.04745 -4101.07768 -4100.26874     0.00000    -0.47569    -0.00000
  Local   -5943.00863  5684.89348  4081.44137     0.00190  2885.07479    -0.00542
  n-local  5988.23024  5931.29445  5951.08088     0.00037    -7.89386    -0.00071
  augment  5507.59034  5530.63726  5538.36390    -0.00012     6.42460     0.00034
  Kinetic 12397.89232 12604.43246 12601.99803    -0.00236    43.62904     0.00446
  Fock    -8443.42292 -8447.71959 -8443.24643     0.00010     0.28009    -0.00014
  Total     -38.85828   -34.16065   -33.45540     0.00000     2.48091     0.00000
  in kB     -49.06810   -43.13619   -42.24563     0.00000     3.13276     0.00000

 VOLUME and BASIS-vectors are now :
  energy-cutoff  :      450.00
  volume of cell :     1268.81
      direct lattice vectors                 reciprocal lattice vectors
     0.000000000 12.280473417  0.000000000     0.000000000  0.081430085 -0.019947423
     9.142702054  0.000000000  0.000000000     0.109376855 -0.000000000  0.000000000
     0.000000000 -2.768261773-11.300697718     0.000000000  0.000000000 -0.088490111

  length of vectors
    12.280473417  9.142702054 11.634820246     0.083837691  0.109376855  0.088490111

 FORCES acting on ions:
    Electron-Ion                     Ewald-Force                    Non-Local-Force
   0.242E-04 0.402E+02 -.823E+02   -.258E-13 -.396E+02 0.867E+02   0.000E+00 -.401E+00 -.413E+01
   -.977E-05 0.455E+02 -.864E+02   -.879E-13 -.449E+02 0.909E+02   0.000E+00 -.498E+00 -.424E+01
   0.390E+01 0.414E+02 -.831E+02   -.379E+01 -.410E+02 0.876E+02   -.105E+00 -.349E+00 -.422E+01
   0.249E+01 0.460E+02 -.846E+02   -.243E+01 -.454E+02 0.890E+02   -.672E-01 -.439E+00 -.413E+01
   -.390E+01 0.414E+02 -.831E+02   0.379E+01 -.410E+02 0.876E+02   0.105E+00 -.349E+00 -.422E+01
   -.249E+01 0.460E+02 -.846E+02   0.243E+01 -.454E+02 0.890E+02   0.672E-01 -.439E+00 -.413E+01
   0.571E+01 -.556E+02 0.814E+02   -.575E+01 0.555E+02 -.860E+02   0.136E-01 0.272E-01 0.437E+01
   0.151E+01 -.511E+02 0.888E+02   -.152E+01 0.506E+02 -.932E+02   0.500E-02 0.347E+00 0.416E+01
   -.491E-04 -.571E+02 0.828E+02   -.727E-13 0.565E+02 -.873E+02   0.000E+00 0.469E+00 0.427E+01
   -.148E-03 -.536E+02 0.865E+02   -.222E-12 0.530E+02 -.908E+02   0.000E+00 0.457E+00 0.417E+01
   -.571E+01 -.556E+02 0.814E+02   0.575E+01 0.555E+02 -.860E+02   -.136E-01 0.272E-01 0.437E+01
   -.151E+01 -.511E+02 0.888E+02   0.152E+01 0.506E+02 -.932E+02   -.500E-02 0.347E+00 0.416E+01
   0.642E+01 -.368E+02 0.301E+02   -.604E+01 0.348E+02 -.319E+02   -.329E+00 0.187E+01 0.162E+01
   0.114E+01 -.434E+02 0.272E+02   -.118E+01 0.413E+02 -.288E+02   0.276E-01 0.184E+01 0.156E+01
   0.512E-04 -.406E+02 0.306E+02   -.121E-12 0.382E+02 -.323E+02   0.000E+00 0.213E+01 0.159E+01
   0.283E-04 -.411E+02 0.266E+02   -.113E-12 0.392E+02 -.282E+02   0.000E+00 0.170E+01 0.152E+01
   -.642E+01 -.368E+02 0.301E+02   0.604E+01 0.348E+02 -.319E+02   0.329E+00 0.187E+01 0.162E+01
   -.114E+01 -.434E+02 0.272E+02   0.118E+01 0.413E+02 -.288E+02   -.276E-01 0.184E+01 0.156E+01
   0.610E-03 0.202E+02 -.154E+02   0.807E-13 -.182E+02 0.173E+02   0.000E+00 -.182E+01 -.177E+01
   0.507E-05 0.352E+02 -.312E+02   -.723E-14 -.332E+02 0.329E+02   0.000E+00 -.175E+01 -.159E+01
   0.856E+01 0.274E+02 -.225E+02   -.847E+01 -.253E+02 0.243E+02   -.845E-01 -.186E+01 -.170E+01
   0.158E+01 0.358E+02 -.269E+02   -.170E+01 -.337E+02 0.284E+02   0.916E-01 -.184E+01 -.150E+01
   -.856E+01 0.274E+02 -.225E+02   0.847E+01 -.253E+02 0.243E+02   0.845E-01 -.186E+01 -.170E+01
   -.158E+01 0.358E+02 -.269E+02   0.170E+01 -.337E+02 0.284E+02   -.916E-01 -.184E+01 -.150E+01
   0.232E+02 0.544E+02 -.665E+02   -.251E+02 -.542E+02 0.685E+02   0.240E+01 0.252E-01 -.124E+01
   0.741E+00 0.352E+02 -.903E+02   -.101E+01 -.349E+02 0.950E+02   0.251E+00 -.261E+00 -.448E+01
   -.281E-03 0.448E+02 -.895E+02   -.119E-12 -.445E+02 0.938E+02   0.000E+00 -.131E+00 -.403E+01
   -.149E-04 0.409E+02 -.841E+02   0.142E-12 -.405E+02 0.885E+02   0.000E+00 -.296E+00 -.422E+01
   -.232E+02 0.544E+02 -.665E+02   0.251E+02 -.542E+02 0.685E+02   -.240E+01 0.252E-01 -.124E+01
   -.741E+00 0.352E+02 -.903E+02   0.101E+01 -.349E+02 0.950E+02   -.251E+00 -.261E+00 -.448E+01
   -.434E-03 0.409E+01 0.729E+02   -.994E-13 -.625E+01 -.766E+02   0.000E+00 0.285E+01 0.310E+01
   -.422E-04 -.337E+02 0.812E+02   0.534E-13 0.333E+02 -.856E+02   0.000E+00 0.368E+00 0.416E+01
   0.134E+02 -.228E+02 0.874E+02   -.131E+02 0.230E+02 -.916E+02   -.236E+00 -.157E+00 0.388E+01
   0.116E+01 -.352E+02 0.804E+02   -.126E+01 0.345E+02 -.849E+02   0.759E-01 0.501E+00 0.421E+01
   -.134E+02 -.228E+02 0.874E+02   0.131E+02 0.230E+02 -.916E+02   0.236E+00 -.157E+00 0.388E+01
   -.116E+01 -.352E+02 0.804E+02   0.126E+01 0.345E+02 -.849E+02   -.759E-01 0.501E+00 0.421E+01
   -.283E-03 -.833E+02 -.366E+01   0.106E-12 0.849E+02 0.487E+01   0.000E+00 -.217E+01 -.182E+01
   0.230E-06 -.436E+02 0.469E+02   -.496E-13 0.418E+02 -.485E+02   0.000E+00 0.160E+01 0.154E+01
   0.150E+02 -.602E+02 0.209E+02   -.148E+02 0.578E+02 -.230E+02   -.111E+00 0.209E+01 0.186E+01
   0.184E+01 -.520E+02 0.397E+02   -.186E+01 0.496E+02 -.411E+02   0.358E-02 0.208E+01 0.145E+01
   -.150E+02 -.602E+02 0.209E+02   0.148E+02 0.578E+02 -.230E+02   0.111E+00 0.209E+01 0.186E+01
   -.184E+01 -.520E+02 0.397E+02   0.186E+01 0.496E+02 -.411E+02   -.358E-02 0.208E+01 0.145E+01
   0.941E+01 0.629E+02 -.305E+02   -.914E+01 -.611E+02 0.320E+02   -.253E+00 -.157E+01 -.136E+01
   0.623E+01 0.606E+02 -.454E+02   -.623E+01 -.582E+02 0.464E+02   -.164E-01 -.205E+01 -.108E+01
   -.843E-05 0.615E+02 -.310E+02   -.104E-12 -.592E+02 0.329E+02   0.000E+00 -.203E+01 -.170E+01
   0.759E-04 0.566E+02 -.352E+02   0.769E-13 -.544E+02 0.369E+02   0.000E+00 -.197E+01 -.174E+01
   -.941E+01 0.629E+02 -.305E+02   0.914E+01 -.611E+02 0.320E+02   0.253E+00 -.157E+01 -.136E+01
   -.623E+01 0.606E+02 -.454E+02   0.623E+01 -.582E+02 0.464E+02   0.164E-01 -.205E+01 -.108E+01
   0.490E+01 -.356E+02 0.183E+02   -.481E+01 0.441E+02 -.209E+02   -.121E+00 -.721E+01 0.222E+01
   0.341E+00 -.218E+02 0.163E+02   -.358E+00 0.291E+02 -.204E+02   0.177E-01 -.624E+01 0.357E+01
   -.107E-03 -.249E+02 0.168E+02   -.106E-12 0.324E+02 -.206E+02   0.000E+00 -.643E+01 0.321E+01
   -.175E-04 -.220E+02 0.171E+02   -.110E-12 0.293E+02 -.211E+02   0.000E+00 -.626E+01 0.339E+01
   -.490E+01 -.356E+02 0.183E+02   0.481E+01 0.441E+02 -.209E+02   0.121E+00 -.721E+01 0.222E+01
   -.341E+00 -.218E+02 0.163E+02   0.358E+00 0.291E+02 -.204E+02   -.177E-01 -.624E+01 0.357E+01
   0.877E-05 0.269E+02 -.139E+02   -.475E-15 -.342E+02 0.174E+02   0.000E+00 0.622E+01 -.302E+01
   -.501E-05 0.208E+02 -.166E+02   -.711E-14 -.282E+02 0.204E+02   0.000E+00 0.637E+01 -.334E+01
   0.556E+00 0.226E+02 -.133E+02   -.384E+00 -.300E+02 0.169E+02   -.152E+00 0.634E+01 -.315E+01
   -.710E-01 0.208E+02 -.167E+02   0.776E-01 -.281E+02 0.205E+02   -.780E-04 0.633E+01 -.332E+01
   -.556E+00 0.226E+02 -.133E+02   0.384E+00 -.300E+02 0.169E+02   0.152E+00 0.634E+01 -.315E+01
   0.710E-01 0.208E+02 -.167E+02   -.776E-01 -.281E+02 0.205E+02   0.780E-04 0.633E+01 -.332E+01
[...]
   -.618E+00 -.606E+02 -.425E+02   0.546E+00 0.583E+02 0.377E+02   0.589E-01 0.196E+01 0.412E+01
   0.103E+02 0.128E+03 0.549E+02   -.104E+02 -.139E+03 -.512E+02   0.175E-01 0.976E+01 -.304E+01
   0.153E+01 0.128E+03 0.651E+02   -.164E+01 -.141E+03 -.617E+02   0.107E+00 0.110E+02 -.293E+01
   0.373E-04 0.126E+03 0.628E+02   0.237E-13 -.138E+03 -.592E+02   0.000E+00 0.108E+02 -.306E+01
   0.222E-04 0.127E+03 0.639E+02   -.307E-13 -.140E+03 -.604E+02   0.000E+00 0.109E+02 -.301E+01
   -.103E+02 0.128E+03 0.549E+02   0.104E+02 -.139E+03 -.512E+02   -.175E-01 0.976E+01 -.304E+01
   -.153E+01 0.128E+03 0.651E+02   0.164E+01 -.141E+03 -.617E+02   -.107E+00 0.110E+02 -.293E+01
   0.313E-03 -.119E+03 -.469E+02   0.715E-13 0.132E+03 0.427E+02   0.000E+00 -.114E+02 0.347E+01
   -.139E-04 -.122E+03 -.788E+02   -.709E-14 0.134E+03 0.765E+02   0.000E+00 -.101E+02 0.207E+01
   0.702E+01 -.115E+03 -.592E+02   -.739E+01 0.127E+03 0.555E+02   0.306E+00 -.104E+02 0.317E+01
   0.175E+01 -.125E+03 -.676E+02   -.160E+01 0.138E+03 0.642E+02   -.132E+00 -.109E+02 0.296E+01
   -.702E+01 -.115E+03 -.592E+02   0.739E+01 0.127E+03 0.555E+02   -.306E+00 -.104E+02 0.317E+01
   -.175E+01 -.125E+03 -.676E+02   0.160E+01 0.138E+03 0.642E+02   0.132E+00 -.109E+02 0.296E+01
   0.982E-03 0.595E+02 0.399E+02   0.338E-13 -.583E+02 -.378E+02   0.000E+00 -.126E+01 -.213E+01
   -.824E-03 0.276E+01 -.542E+01   0.206E-12 0.198E-11 0.000E+00   0.000E+00 -.228E+01 0.460E+01

 POSITION                                       TOTAL-FORCE (eV/Angst)
      0.00000      7.66410     -1.76973         0.000000      0.085248      0.023128
      0.00000      6.27673     -7.41970         0.000000      0.062429      0.001174
      3.04996      7.66762     -1.76787        -0.003080      0.076822      0.023761
      3.04767      6.27559     -7.42132        -0.012518      0.065740     -0.008515
      6.09274      7.66762     -1.76787         0.003080      0.076822      0.023761
      6.09503      6.27559     -7.42132         0.012518      0.065740     -0.008515
      1.52538      9.36568     -3.88708        -0.017715     -0.099792     -0.017197
      1.52424      7.99049     -9.52977        -0.009628     -0.073738     -0.006390
      4.57135      9.37485     -3.88338         0.000000     -0.098311     -0.013472
      4.57135      7.99551     -9.53056         0.000000     -0.078498     -0.001633
      7.61732      9.36568     -3.88708         0.017715     -0.099792     -0.017197
      7.61846      7.99049     -9.52977         0.009628     -0.073738     -0.006390
      1.52221      6.15222     -4.48934         0.015976      0.010541     -0.025974
      1.52416      4.77336    -10.14329        -0.011438     -0.028595      0.033744
      4.57135      6.17212     -4.49692         0.000000     -0.016387      0.000435
      4.57135      4.77431    -10.14466         0.000000     -0.025342      0.035098
      7.62049      6.15222     -4.48934        -0.015976      0.010541     -0.025974
      7.61854      4.77336    -10.14329         0.011438     -0.028595      0.033744
      0.00000     10.86812     -1.15730         0.000000     -0.013401      0.057514
      0.00000      9.49269     -6.80368         0.000000      0.008373     -0.027535
      3.04973     10.87254     -1.15753        -0.001116      0.010969      0.024586
      3.04876      9.49006     -6.80629        -0.011944      0.011107     -0.041658
      6.09298     10.87254     -1.15753         0.001116      0.010969      0.024586
      6.09394      9.49006     -6.80629         0.011944      0.011107     -0.041658
      1.50637      1.52996     -1.80527         0.446992      0.090813      0.560319
      1.52187      0.12840     -7.41290        -0.006476      0.047486     -0.012751
      4.57135      1.51276     -1.77996         0.000000      0.056020      0.102976
      4.57135      0.12985     -7.42336         0.000000      0.054715     -0.015778
      7.63633      1.52996     -1.80527        -0.446992      0.090813      0.560319
      7.62083      0.12840     -7.41290         0.006476      0.047486     -0.012751
      0.00000      3.23028     -3.85544         0.000000      0.652205     -0.313455
      0.00000      1.84852     -9.52560         0.000000     -0.045091     -0.018369
      3.05482      3.24857     -3.87262         0.066774      0.018049     -0.066773
      3.04924      1.84923     -9.52720        -0.018718     -0.056018     -0.012199
      6.08788      3.24857     -3.87262        -0.066774      0.018049     -0.066773
      6.09346      1.84923     -9.52720         0.018718     -0.056018     -0.012199
      0.00000      0.02743     -4.45995         0.000000     -0.523689     -0.506839
      0.00000     -1.37286    -10.13288         0.000000     -0.052945      0.071189
      3.04466      0.00923     -4.49569         0.034637     -0.085744     -0.067627
      3.04444     -1.36479    -10.15584        -0.010789     -0.055728      0.044781
      6.09805      0.00923     -4.49569        -0.034637     -0.085744     -0.067627
      6.09826     -1.36479    -10.15584         0.010789     -0.055728      0.044781
      1.52976      4.75917     -1.14720         0.003024      0.091773      0.104291
      1.52387      3.35493     -6.81331        -0.014823      0.072167     -0.100323
      4.57135      4.74163     -1.15601         0.000000      0.057271      0.032383
      4.57135      3.35347     -6.80760         0.000000      0.055032     -0.064380
      7.61294      4.75917     -1.14720        -0.003024      0.091773      0.104291
      7.61883      3.35493     -6.81331         0.014823      0.072167     -0.100323
      1.52324     11.87945     -1.42070        -0.066428     -0.080300     -0.007956
      1.52534     10.49101     -7.09436         0.004953     -0.156985      0.134697
      4.57135     11.87681     -1.44119         0.000000     -0.145743      0.089141
      4.57135     10.49534     -7.09087         0.000000     -0.159755      0.130511
      7.61946     11.87945     -1.42070         0.066428     -0.080300     -0.007956
      7.61736     10.49101     -7.09436        -0.004953     -0.156985      0.134697
      0.00000      5.14425     -4.20645         0.000000      0.106648     -0.079376
      0.00000      3.76775     -9.85967         0.000000      0.170840     -0.132218
      3.05351      5.16240     -4.21516        -0.011008      0.140511     -0.096861
      3.04803      3.76737     -9.86072         0.006879      0.167556     -0.127670
      6.08919      5.16240     -4.21516         0.011008      0.140511     -0.096861
      6.09468      3.76737     -9.86072        -0.006879      0.167556     -0.127670
[...]
      7.57797      3.45662     -2.47475         0.126228     -0.145819      0.011156
      7.62053      2.02502     -8.12793        -0.002432      0.030099      0.135468
      1.53126      2.86705     -5.03842        -0.079513      0.270171      0.093241
      1.52464      1.46488    -10.68343         0.013937      0.397908     -0.089702
      4.57135      2.85873     -5.03870         0.000000      0.374257     -0.024776
      4.57135      1.45479    -10.68861         0.000000      0.390601     -0.087085
      7.61145      2.86705     -5.03842         0.079513      0.270171      0.093241
      7.61806      1.46488    -10.68343        -0.013937      0.397908     -0.089702
      0.00000      1.94823     -0.58725         0.000000     -0.434907     -0.158545
      0.00000      0.50364     -6.25650         0.000000     -0.344385      0.140191
      3.03766      1.89819     -0.62990        -0.007389     -0.368495      0.020947
      3.04870      0.52499     -6.26534        -0.006083     -0.394126      0.103379
      6.10504      1.89819     -0.62990         0.007389     -0.368495      0.020947
      6.09401      0.52499     -6.26534         0.006083     -0.394126      0.103379
      0.00000      1.35889     -3.14563         0.000000     -0.219278     -0.238872
    total drift:                               -0.000824      0.043615      0.013152

  FREE ENERGIE OF THE ION-ELECTRON SYSTEM (eV)
  free  energy   TOTEN  =      -955.24021491 eV

  energy  without entropy=     -955.21659150  energy(sigma->0) =     -955.22840321

 writing wavefunctions