 vasp.6.4.2 20Jul23 (build Nov 12 2023 22:16:35) complex
 executed on              LinuxNV date 2025.03.22  17:00:06
 OpenACC runtime initialized ...    4 GPUs detected

 INCAR:
   PREC = Normal
   ENCUT = 450
   NELM = 500
   IBRION = -1
   ISPIN = 1
   NSW = 0
   ISIF = 2
   EDIFF = 1E-5
   EDIFFG = -5E-3
   ISTART = 0
   ICHARG = 0
   ISMEAR = 0
   SIGMA = 0.05
   LWAVE = .T.
   LCHARG = .T.
   LREAL = Auto
   LPLANE = .TRUE.
   NPAR = 1
   KPAR = 4
   NCORE = 1
   ALGO = All
   LHFCALC = .TRUE.
   HSE06 = .TRUE.
   HFSCREEN = 0.2
   TIME = 0.4
   AEXX = 0.32
   LMAXFOCK = 4
   PRECFOCK = Fast
   NELECT = 1056

 POTCAR:    PAW_PBE Ga_d 06Jul2010
 POTCAR:    PAW_PBE O 08Apr2002
 POTCAR:    PAW_PBE N 08Apr2002
 POTCAR:    PAW_PBE Ga_d 06Jul2010
   VRHFIN =Ga: s2p1

   TITEL  = PAW_PBE Ga_d 06Jul2010
   POMASS =   69.723; ZVAL   =   13.000    mass and valenz
   ENMAX  =  282.691; ENMIN  =  212.018 eV

   TITEL  = PAW_PBE O 08Apr2002
   POMASS =   16.000; ZVAL   =    6.000    mass and valenz
   ENMAX  =  400.000; ENMIN  =  300.000 eV

   TITEL  = PAW_PBE N 08Apr2002
   POMASS =   14.001; ZVAL   =    5.000    mass and valenz
   ENMAX  =  400.000; ENMIN  =  300.000 eV

 Optimization of the real space projectors (new method)

 maximal supplied QI-value         = 16.25
 optimisation between [QCUT,QGAM] = [ 10.73, 21.61] = [ 32.22,130.83] Ry
 Optimized for a Real-space Cutoff    1.42 Angstroem

   l    n(q)    QCUT    max X(q) W(low)/X(q) W(high)/X(q)  e(spline)
   2      8    10.726     7.143    0.22E-03    0.16E-03    0.73E-07
   2      8    10.726     5.586    0.40E-03    0.26E-03    0.10E-06
   0      9    10.726    12.382    0.25E-04    0.21E-05    0.37E-07
   0      9    10.726     6.622    0.42E-04    0.48E-05    0.77E-07
   1      9    10.726     7.935    0.27E-03    0.13E-04    0.16E-06
   1      9    10.726     2.425    0.23E-03    0.15E-04    0.14E-06
 Optimization of the real space projectors (new method)

[...]

   l    n(q)    QCUT    max X(q) W(low)/X(q) W(high)/X(q)  e(spline)
   0      8    10.645    20.381    0.38E-03    0.60E-03    0.15E-06
   0      8    10.645    15.268    0.40E-03    0.65E-03    0.17E-06
   1      7    10.645     5.964    0.30E-03    0.63E-03    0.18E-06
   1      7    10.645     5.382    0.24E-03    0.53E-03    0.16E-06
 Optimization of the real space projectors (new method)

 maximal supplied QI-value         = 25.13
 optimisation between [QCUT,QGAM] = [ 10.81, 21.61] = [ 32.71,130.83] Ry
 Optimized for a Real-space Cutoff    1.23 Angstroem

   l    n(q)    QCUT    max X(q) W(low)/X(q) W(high)/X(q)  e(spline)
   0      8    10.807    79.467    0.34E-03    0.68E-03    0.21E-06
   0      8    10.807    66.151    0.34E-03    0.67E-03    0.21E-06
   1      7    10.807    14.030    0.45E-03    0.13E-02    0.11E-05
   1      7    10.807     9.831    0.48E-03    0.13E-02    0.11E-05
  PAW_PBE Ga_d 06Jul2010                :
  PAW_PBE O 08Apr2002                   :
  PAW_PBE N 08Apr2002                   :

 POSCAR: Ga48 O72
  positions in direct lattice
  velocities in cartesian coordinates
 exchange correlation table for  LEXCH =        8
   RHO(1)=    0.500       N(1)  =     2000
   RHO(2)=  100.500       N(2)  =     4000

 ion  position               nearest neighbor table
   1  0.659  0.000  0.157-  85 1.94  83 1.96  79 1.96  67 2.02  61 2.07  65 2.07
   2  0.659  0.000  0.656-  86 1.94  84 1.95  80 1.95  68 2.02  62 2.08  66 2.08
   3  0.660  0.333  0.157-  87 1.93  79 1.96  81 1.96  69 2.01  63 2.07  61 2.08
   4  0.659  0.333  0.657-  88 1.94  82 1.95  80 1.95  70 2.02  62 2.08  64 2.08
   5  0.660  0.667  0.157-  89 1.93  83 1.96  81 1.96  71 2.01  63 2.07  65 2.08
   6  0.659  0.667  0.657-  90 1.94  82 1.95  84 1.95  72 2.02  66 2.08  64 2.08
   7  0.841  0.167  0.344-  91 1.93  73 1.96  75 1.96  61 2.03  67 2.08  69 2.08
   8  0.841  0.167  0.843-  92 1.94  74 1.95  76 1.95  62 2.02  70 2.08  68 2.08
   9  0.841  0.500  0.343-  93 1.93  77 1.96  75 1.96  63 2.02  71 2.08  69 2.08
  10  0.842  0.500  0.843-  94 1.94  78 1.95  76 1.95  64 2.02  70 2.08  72 2.08
  11  0.841  0.833  0.344-  95 1.93  73 1.96  77 1.96  65 2.03  67 2.08  71 2.08
  12  0.841  0.833  0.843-  96 1.94  74 1.95  78 1.95  66 2.02  72 2.08  68 2.08
  13  0.589  0.166  0.397-  57 1.84  55 1.84  80 1.85  61 1.88
  14  0.591  0.167  0.898-  79 1.84  56 1.85  58 1.85  62 1.87
  15  0.593  0.500  0.398-  57 1.84  59 1.84  82 1.84  63 1.87
  16  0.592  0.500  0.898-  81 1.84  60 1.85  58 1.85  64 1.87
  17  0.589  0.834  0.397-  59 1.84  55 1.84  84 1.85  65 1.88
  18  0.591  0.833  0.898-  83 1.84  56 1.85  60 1.85  66 1.87
  19  0.908  0.000  0.102-  49 1.84  53 1.84  74 1.85  67 1.88
  20  0.909  0.000  0.602-  73 1.84  54 1.84  50 1.84  68 1.88
  21  0.908  0.333  0.102-  49 1.83  51 1.84  76 1.84  69 1.88
  22  0.909  0.333  0.602-  75 1.84  50 1.84  52 1.85  70 1.87
  23  0.908  0.667  0.102-  53 1.83  51 1.84  78 1.84  71 1.88
  24  0.909  0.667  0.602-  77 1.84  54 1.84  52 1.85  72 1.87
  25  0.160  0.161  0.161- 120 1.97  49 1.98 114 1.99 116 1.99 102 2.06  98 2.12
  26  0.159  0.166  0.655- 115 1.94 117 1.95  50 1.95 103 2.03  97 2.07  99 2.10
  27  0.159  0.500  0.158-  51 1.96 116 1.96 118 1.96 104 2.04 100 2.05  98 2.05
  28  0.158  0.500  0.657-  52 1.94 117 1.95 119 1.95 105 2.03 101 2.08  99 2.08
  29  0.160  0.839  0.161- 120 1.97  53 1.98 114 1.99 118 1.99 106 2.06 100 2.12
  30  0.159  0.834  0.655- 115 1.94 119 1.95  54 1.95 107 2.03  97 2.07 101 2.10
  31  0.335  0.000  0.343- 120 1.94 112 1.97 108 1.97  55 1.98 106 2.14 102 2.14
  32  0.341  0.000  0.843- 109 1.95 113 1.95  56 1.95  97 2.02 103 2.08 107 2.08
  33  0.341  0.333  0.342- 108 1.95  57 1.95 110 1.96  98 2.02 102 2.03 104 2.07
  34  0.341  0.333  0.843- 109 1.94  58 1.95 111 1.96  99 2.02 105 2.07 103 2.07
  35  0.341  0.667  0.342- 112 1.95  59 1.95 110 1.96 100 2.02 106 2.03 104 2.07
  36  0.341  0.667  0.843- 113 1.94  60 1.95 111 1.96 101 2.02 105 2.07 107 2.07
  37  0.093  0.000  0.392- 120 1.85 115 1.87  91 1.88  95 1.88
  38  0.091  0.000  0.897- 114 1.82  92 1.85  96 1.85  97 1.88
  39  0.090  0.333  0.397-  91 1.85 117 1.85  93 1.85  98 1.86
  40  0.092  0.333  0.900- 116 1.84  92 1.85  94 1.85  99 1.88
  41  0.090  0.667  0.397-  95 1.85 119 1.85  93 1.85 100 1.86
  42  0.092  0.667  0.900- 118 1.84  96 1.85  94 1.85 101 1.88
  43  0.410  0.167  0.102- 109 1.84 102 1.84  85 1.85  87 1.85
  44  0.410  0.167  0.603- 108 1.82  86 1.85  88 1.85 103 1.87
  45  0.409  0.500  0.103- 111 1.84  89 1.85  87 1.85 104 1.86
  46  0.409  0.500  0.602- 110 1.83  90 1.85  88 1.85 105 1.88
  47  0.410  0.833  0.102- 113 1.84 106 1.84  85 1.85  89 1.85
  48  0.410  0.833  0.603- 112 1.82  86 1.85  90 1.85 107 1.87
  49  0.994  0.167  0.124-  21 1.83  19 1.84  25 1.98
  50  0.996  0.167  0.628-  22 1.84  20 1.84  26 1.95
  51  0.995  0.500  0.127-  21 1.84  23 1.84  27 1.96
  52  0.996  0.500  0.628-  22 1.85  24 1.85  28 1.94
  53  0.994  0.833  0.124-  23 1.83  19 1.84  29 1.98
  54  0.996  0.833  0.628-  24 1.84  20 1.84  30 1.95
  55  0.501  0.000  0.372-  17 1.84  13 1.84  31 1.98
  56  0.504  0.000  0.872-  14 1.85  18 1.85  32 1.95
  57  0.505  0.335  0.373-  15 1.84  13 1.84  33 1.95
  58  0.504  0.334  0.873-  16 1.85  14 1.85  34 1.95
  59  0.505  0.665  0.373-  15 1.84  17 1.84  35 1.95
  60  0.504  0.666  0.873-  16 1.85  18 1.85  36 1.95
[...]
 106  0.331  0.826  0.219-  47 1.84  35 2.03  29 2.06  31 2.14
 107  0.328  0.833  0.719-  48 1.87  30 2.03  36 2.07  32 2.08
 108  0.335  0.170  0.448-  44 1.82  33 1.95  31 1.97
 109  0.334  0.167  0.945-  43 1.84  34 1.94  32 1.95
 110  0.334  0.500  0.446-  46 1.83  35 1.96  33 1.96
 111  0.332  0.500  0.946-  45 1.84  36 1.96  34 1.96
 112  0.335  0.830  0.448-  48 1.82  35 1.95  31 1.97
 113  0.334  0.833  0.945-  47 1.84  36 1.94  32 1.95
 114  0.172  0.000  0.049-  38 1.82  29 1.99  25 1.99
 115  0.165  0.000  0.553-  37 1.87  30 1.94  26 1.94
 116  0.166  0.332  0.057-  40 1.84  27 1.96  25 1.99
 117  0.167  0.334  0.555-  39 1.85  26 1.95  28 1.95
 118  0.166  0.668  0.057-  42 1.84  27 1.96  29 1.99
 119  0.167  0.666  0.555-  41 1.85  30 1.95  28 1.95
 120  0.174  0.000  0.277-  37 1.85  31 1.94  25 1.97  29 1.97

  LATTYP: Found a simple monoclinic cell.
 ALAT       =    11.6348202465
 B/A-ratio  =     0.7858051831
 C/A-ratio  =     1.0554931797
 COS(beta)  =    -0.2379290539

  Lattice vectors:

 A1 = (   0.0000000000,  -2.7682617730, -11.3006977184)
 A2 = (  -9.1427020537,   0.0000000000,   0.0000000000)
 A3 = (   0.0000000000,  12.2804734172,   0.0000000000)

Analysis of symmetry for initial positions (statically):
 Subroutine PRICEL returns:
 Original cell was already a primitive cell.

 Routine SETGRP: Setting up the symmetry group for a
 simple monoclinic supercell.

 Subroutine GETGRP returns: Found  2 space group operations
 (whereof  2 operations were pure point group operations)
 out of a pool of  4 trial point group operations.

The static configuration has the point symmetry C_1h.

Analysis of symmetry for dynamics (positions and initial velocities):
 Subroutine PRICEL returns:
 Original cell was already a primitive cell.

 Routine SETGRP: Setting up the symmetry group for a
 simple monoclinic supercell.

 Subroutine GETGRP returns: Found  2 space group operations
 (whereof  2 operations were pure point group operations)
 out of a pool of  4 trial point group operations.

The dynamic configuration has the point symmetry C_1h.

 Subroutine INISYM returns: Found  2 space group operations
 (whereof  2 operations are pure point group operations),
 and found     1 'primitive' translations

                                     Primitive cell

  volume of cell :    1268.8052

  direct lattice vectors                    reciprocal lattice vectors
     0.000000000 12.280473417  0.000000000     0.000000000  0.081430085 -0.019947423
     9.142702054  0.000000000  0.000000000     0.109376855 -0.000000000  0.000000000
     0.000000000 -2.768261773-11.300697718     0.000000000  0.000000000 -0.088490111

  length of vectors
    12.280473417  9.142702054 11.634820246     0.083837691  0.109376855  0.088490111

  position of ions in fractional coordinates (direct lattice)
     0.658956231  0.000000000  0.156866660
     0.659174492  0.000000000  0.656272664
     0.659518500  0.333426064  0.156574181
     0.659308631  0.333306198  0.656567403
     0.659518500  0.666573936  0.156574181
     0.659308631  0.666693802  0.656567403
     0.840715972  0.166503747  0.343927477
     0.841045182  0.166537337  0.843494843
     0.840961711  0.500000000  0.343381716
     0.841506281  0.500000000  0.843025394
     0.840715972  0.833496253  0.343927477
     0.841045182  0.833462663  0.843494843
     0.588956755  0.165706038  0.396818951
     0.591144847  0.166727993  0.897608368
     0.592693870  0.500000000  0.398084673
     0.591876152  0.500000000  0.897657362
     0.588956755  0.834293962  0.396818951
     0.591144847  0.833272007  0.897608368
     0.908463737  0.000000000  0.102452894
     0.909117666  0.000000000  0.601793972
     0.907974412  0.333427131  0.101728084
     0.908678552  0.333229690  0.602024985
     0.907974412  0.666572869  0.101728084
[...]
     52     -17.0016      2.00000
     53     -16.9859      2.00000
     54     -16.9792      2.00000
     55     -16.9707      2.00000
     56     -16.9674      2.00000
     57     -16.9607      2.00000
     58     -16.9451      2.00000
     59     -16.9214      2.00000
     60     -16.9069      2.00000
[...]
    619      16.1945      0.00000
    620      16.3417      0.00000
    621      16.4550      0.00000
    622      16.6119      0.00000
    623      16.6812      0.00000
    624      16.7723      0.00000
    625      16.9013      0.00000
    626      16.9391      0.00000
    627      17.0450      0.00000
    628      17.1043      0.00000
    629      17.1552      0.00000
    630      17.2150      0.00000
    631      17.2594      0.00000
    632      17.3959      0.00000
    633      17.5701      0.00000

 soft charge-density along one line, spin component            1
         0         1         2         3         4         5         6         7         8         9
 total charge-density along one line

------------------------ aborting loop because EDIFF is reached ----------------------------------------

  FORCE on cell =-STRESS in cart. coord.  units (eV):
  Direction    XX          YY          ZZ          XY          YZ          ZX
  Alpha Z  5530.94813  5530.94813  5530.94813
  Ewald  -25085.15072-32332.44933-31345.73416    -0.00000 -1722.07344     0.00000
  Hartree 14096.60773  9547.66067 10195.42758    -0.00003 -1178.46461    -0.00004
  E(xc)   -4101.19975 -4104.23301 -4103.39044     0.00000    -0.46388    -0.00000
  Local   -5934.75052  5701.90200  4036.07238     0.00007  2864.61974     0.00007
  n-local  5992.32160  5936.01508  5956.95330     0.00001    -6.62410    -0.00000
  augment  5507.96033  5530.94257  5538.92787    -0.00001     6.31042    -0.00000
  Kinetic 12412.67228 12617.16158 12615.31684    -0.00001    37.44396     0.00009
  Fock    -8447.17127 -8451.37886 -8446.96245    -0.00001     0.45090    -0.00003
  Total     -27.76219   -23.43118   -22.44095     0.00000     1.19899     0.00000
  in kB     -35.05656   -29.58760   -28.33720     0.00000     1.51402     0.00000

 VOLUME and BASIS-vectors are now :
  energy-cutoff  :      450.00
  volume of cell :     1268.81
      direct lattice vectors                 reciprocal lattice vectors
     0.000000000 12.280473417  0.000000000     0.000000000  0.081430085 -0.019947423
     9.142702054  0.000000000  0.000000000     0.109376855 -0.000000000  0.000000000
     0.000000000 -2.768261773-11.300697718     0.000000000  0.000000000 -0.088490111

  length of vectors
    12.280473417  9.142702054 11.634820246     0.083837691  0.109376855  0.088490111

 FORCES acting on ions:
    Electron-Ion                     Ewald-Force                    Non-Local-Force
   -.569E-04 0.440E+02 -.803E+02   0.125E-12 -.436E+02 0.844E+02   0.000E+00 -.208E+00 -.387E+01
   -.337E-04 0.389E+02 -.872E+02   0.438E-11 -.385E+02 0.918E+02   0.000E+00 -.316E+00 -.440E+01
   0.570E+01 0.435E+02 -.803E+02   -.561E+01 -.433E+02 0.846E+02   -.787E-01 -.130E+00 -.409E+01
   0.481E+01 0.404E+02 -.875E+02   -.466E+01 -.401E+02 0.919E+02   -.137E+00 -.145E+00 -.417E+01
   -.570E+01 0.435E+02 -.803E+02   0.561E+01 -.433E+02 0.846E+02   0.787E-01 -.130E+00 -.409E+01
   -.481E+01 0.404E+02 -.875E+02   0.466E+01 -.401E+02 0.919E+02   0.137E+00 -.145E+00 -.417E+01
   0.456E+01 -.494E+02 0.807E+02   -.470E+01 0.502E+02 -.854E+02   0.118E+00 -.795E+00 0.442E+01
   0.186E+01 -.536E+02 0.866E+02   -.196E+01 0.534E+02 -.913E+02   0.870E-01 0.128E+00 0.443E+01
   -.365E-04 -.558E+02 0.826E+02   -.173E-12 0.557E+02 -.870E+02   0.000E+00 0.285E-01 0.416E+01
   0.386E-04 -.626E+02 0.833E+02   0.114E-10 0.619E+02 -.881E+02   0.000E+00 0.550E+00 0.449E+01
   -.456E+01 -.494E+02 0.807E+02   0.470E+01 0.502E+02 -.854E+02   -.118E+00 -.795E+00 0.442E+01
   -.186E+01 -.536E+02 0.866E+02   0.196E+01 0.534E+02 -.913E+02   -.870E-01 0.128E+00 0.443E+01
   0.107E+02 -.413E+02 0.249E+02   -.103E+02 0.387E+02 -.264E+02   -.340E+00 0.240E+01 0.140E+01
   0.211E+01 -.408E+02 0.303E+02   -.215E+01 0.388E+02 -.319E+02   0.306E-01 0.184E+01 0.161E+01
   -.218E-05 -.440E+02 0.292E+02   -.449E-12 0.410E+02 -.306E+02   0.000E+00 0.268E+01 0.135E+01
   0.117E-04 -.370E+02 0.300E+02   -.411E-12 0.351E+02 -.316E+02   0.000E+00 0.177E+01 0.154E+01
   -.107E+02 -.413E+02 0.249E+02   0.103E+02 0.387E+02 -.264E+02   0.340E+00 0.240E+01 0.140E+01
   -.211E+01 -.408E+02 0.303E+02   0.215E+01 0.388E+02 -.319E+02   -.306E-01 0.184E+01 0.161E+01
   -.237E-04 0.296E+02 -.166E+02   0.391E-12 -.263E+02 0.181E+02   0.000E+00 -.292E+01 -.140E+01
   -.396E-04 0.346E+02 -.315E+02   0.388E-11 -.326E+02 0.333E+02   0.000E+00 -.175E+01 -.169E+01
   0.165E+01 0.298E+02 -.207E+02   -.260E+01 -.266E+02 0.222E+02   0.849E+00 -.291E+01 -.143E+01
   0.198E+01 0.334E+02 -.267E+02   -.210E+01 -.314E+02 0.283E+02   0.112E+00 -.181E+01 -.153E+01
   -.165E+01 0.298E+02 -.207E+02   0.260E+01 -.266E+02 0.222E+02   -.849E+00 -.291E+01 -.143E+01
   -.198E+01 0.334E+02 -.267E+02   0.210E+01 -.314E+02 0.283E+02   -.112E+00 -.181E+01 -.153E+01
   -.154E+02 0.500E+02 -.869E+02   0.725E+01 -.506E+02 0.831E+02   0.764E+01 0.657E+00 0.354E+01
   -.570E+01 0.344E+02 -.841E+02   0.486E+01 -.339E+02 0.894E+02   0.770E+00 -.469E+00 -.504E+01
   -.113E-03 0.421E+02 -.101E+03   0.306E-12 -.417E+02 0.104E+03   0.000E+00 -.255E+00 -.317E+01
   0.712E-04 0.407E+02 -.775E+02   -.116E-10 -.402E+02 0.823E+02   0.000E+00 -.310E+00 -.448E+01
   0.154E+02 0.500E+02 -.869E+02   -.725E+01 -.506E+02 0.831E+02   -.764E+01 0.657E+00 0.354E+01
   0.570E+01 0.344E+02 -.841E+02   -.486E+01 -.339E+02 0.894E+02   -.770E+00 -.469E+00 -.504E+01
   0.428E-04 -.336E+02 0.833E+02   -.302E-12 0.218E+02 -.834E+02   0.000E+00 0.110E+02 0.981E-01
   -.168E-04 -.304E+02 0.804E+02   -.438E-11 0.296E+02 -.850E+02   0.000E+00 0.661E+00 0.437E+01
   0.301E+01 -.264E+02 0.849E+02   -.411E+01 0.258E+02 -.883E+02   0.101E+01 0.455E+00 0.332E+01
   -.323E+01 -.296E+02 0.805E+02   0.276E+01 0.287E+02 -.851E+02   0.422E+00 0.735E+00 0.433E+01
   -.301E+01 -.264E+02 0.849E+02   0.411E+01 0.258E+02 -.883E+02   -.101E+01 0.455E+00 0.332E+01
   0.323E+01 -.296E+02 0.805E+02   -.276E+01 0.287E+02 -.851E+02   -.422E+00 0.735E+00 0.433E+01
   -.104E-03 -.542E+02 0.186E+02   -.327E-12 0.608E+02 -.122E+02   0.000E+00 -.642E+01 -.603E+01
   -.177E-04 -.387E+02 0.353E+02   -.372E-11 0.384E+02 -.398E+02   0.000E+00 0.274E+00 0.419E+01
   0.959E+01 -.552E+02 0.253E+02   -.976E+01 0.536E+02 -.262E+02   0.163E+00 0.149E+01 0.888E+00
   -.140E+01 -.580E+02 0.389E+02   0.129E+01 0.559E+02 -.414E+02   0.893E-01 0.184E+01 0.236E+01
   -.959E+01 -.552E+02 0.253E+02   0.976E+01 0.536E+02 -.262E+02   -.163E+00 0.149E+01 0.888E+00
   0.140E+01 -.580E+02 0.389E+02   -.129E+01 0.559E+02 -.414E+02   -.893E-01 0.184E+01 0.236E+01
   0.129E+02 0.609E+02 -.335E+02   -.125E+02 -.605E+02 0.334E+02   -.391E+00 -.352E+00 0.101E-01
   0.864E+01 0.597E+02 -.346E+02   -.837E+01 -.582E+02 0.378E+02   -.245E+00 -.131E+01 -.295E+01
   0.141E-04 0.645E+02 -.351E+02   0.375E-12 -.626E+02 0.363E+02   0.000E+00 -.170E+01 -.113E+01
   0.126E-04 0.648E+02 -.352E+02   0.184E-12 -.626E+02 0.377E+02   0.000E+00 -.202E+01 -.232E+01
   -.129E+02 0.609E+02 -.335E+02   0.125E+02 -.605E+02 0.334E+02   0.391E+00 -.352E+00 0.101E-01
   -.864E+01 0.597E+02 -.346E+02   0.837E+01 -.582E+02 0.378E+02   0.245E+00 -.131E+01 -.295E+01
   -.101E+00 -.405E+02 0.140E+02   0.919E-01 0.504E+02 -.173E+02   0.197E-01 -.859E+01 0.282E+01
   -.304E+00 -.236E+02 0.184E+02   0.317E+00 0.312E+02 -.227E+02   -.995E-02 -.657E+01 0.371E+01
   -.342E-04 -.293E+02 0.176E+02   0.727E-13 0.374E+02 -.216E+02   0.000E+00 -.700E+01 0.344E+01
   0.254E-04 -.230E+02 0.196E+02   -.138E-12 0.304E+02 -.236E+02   0.000E+00 -.635E+01 0.346E+01
   0.102E+00 -.405E+02 0.140E+02   -.919E-01 0.504E+02 -.173E+02   -.197E-01 -.859E+01 0.282E+01
   0.304E+00 -.236E+02 0.184E+02   -.317E+00 0.312E+02 -.227E+02   0.995E-02 -.657E+01 0.371E+01
   -.244E-06 0.351E+02 -.196E+02   0.119E-12 -.446E+02 0.237E+02   0.000E+00 0.821E+01 -.357E+01
   -.120E-04 0.229E+02 -.158E+02   -.206E-12 -.306E+02 0.196E+02   0.000E+00 0.660E+01 -.335E+01
   -.934E+00 0.231E+02 -.146E+02   0.118E+01 -.313E+02 0.183E+02   -.214E+00 0.706E+01 -.327E+01
   -.842E+00 0.240E+02 -.152E+02   0.912E+00 -.316E+02 0.190E+02   -.604E-01 0.655E+01 -.327E+01
   0.934E+00 0.231E+02 -.146E+02   -.118E+01 -.313E+02 0.183E+02   0.214E+00 0.706E+01 -.327E+01
   0.842E+00 0.240E+02 -.152E+02   -.912E+00 -.316E+02 0.190E+02   0.604E-01 0.655E+01 -.327E+01
[...]
   -.127E+01 -.581E+02 -.419E+02   0.136E+01 0.559E+02 0.373E+02   -.833E-01 0.196E+01 0.390E+01
   0.684E+01 0.122E+03 0.533E+02   -.754E+01 -.134E+03 -.484E+02   0.610E+00 0.103E+02 -.416E+01
   0.656E+00 0.125E+03 0.663E+02   -.851E+00 -.138E+03 -.633E+02   0.170E+00 0.106E+02 -.255E+01
   0.825E-05 0.125E+03 0.608E+02   0.209E-13 -.137E+03 -.564E+02   0.000E+00 0.106E+02 -.377E+01
   0.594E-05 0.129E+03 0.644E+02   -.769E-13 -.142E+03 -.611E+02   0.000E+00 0.108E+02 -.284E+01
   -.684E+01 0.122E+03 0.533E+02   0.754E+01 -.134E+03 -.484E+02   -.610E+00 0.103E+02 -.416E+01
   -.656E+00 0.125E+03 0.663E+02   0.851E+00 -.138E+03 -.633E+02   -.170E+00 0.106E+02 -.255E+01
   -.226E-04 -.129E+03 -.449E+02   -.597E-12 0.142E+03 0.386E+02   0.000E+00 -.116E+02 0.540E+01
   -.772E-05 -.116E+03 -.785E+02   -.102E-11 0.127E+03 0.776E+02   0.000E+00 -.952E+01 0.700E+00
   0.972E+01 -.115E+03 -.540E+02   -.112E+02 0.126E+03 0.487E+02   0.129E+01 -.101E+02 0.454E+01
   -.147E+01 -.122E+03 -.663E+02   0.176E+01 0.135E+03 0.634E+02   -.251E+00 -.107E+02 0.251E+01
   -.972E+01 -.115E+03 -.540E+02   0.112E+02 0.126E+03 0.487E+02   -.129E+01 -.101E+02 0.454E+01
   0.147E+01 -.122E+03 -.663E+02   -.176E+01 0.135E+03 0.634E+02   0.251E+00 -.107E+02 0.251E+01
   0.256E-04 0.638E+02 0.397E+02   -.151E-12 -.630E+02 -.370E+02   0.000E+00 -.743E+00 -.238E+01
   -.167E-03 -.691E+01 -.114E+02   0.933E-13 0.853E-12 0.213E-13   0.167E-15 0.618E+01 0.992E+01

 POSITION                                       TOTAL-FORCE (eV/Angst)
      0.00000      7.65805     -1.77270         0.000000      0.066169      0.002648
      0.00000      6.27824     -7.41634         0.000000      0.065787      0.012126
      3.04842      7.66576     -1.76940         0.001777      0.063348      0.005539
      3.04732      6.27907     -7.41967         0.003966      0.065521      0.005686
      6.09429      7.66576     -1.76940        -0.001777      0.063348      0.005539
      6.09538      6.27907     -7.41967        -0.003966      0.065521      0.005686
      1.52229      9.37231     -3.88662        -0.009232     -0.041888     -0.016962
      1.52260      7.99342     -9.53208        -0.002199     -0.060124     -0.010820
      4.57135      9.37684     -3.88045         0.000000     -0.064069     -0.006606
      4.57135      8.00038     -9.52678         0.000000     -0.074247     -0.013219
      7.62041      9.37231     -3.88662         0.009232     -0.041888     -0.016962
      7.62010      7.99342     -9.53208         0.002199     -0.060124     -0.010820
      1.51500      6.13417     -4.48433         0.020370     -0.038481      0.015806
      1.52434      4.77472    -10.14360        -0.001001     -0.020377      0.014153
      4.57135      6.17656     -4.49863         0.000000     -0.050965      0.021092
      4.57135      4.78357    -10.14415         0.000000     -0.021540      0.018014
      7.62770      6.13417     -4.48433        -0.020370     -0.038481      0.015806
      7.61836      4.77472    -10.14360         0.001001     -0.020377      0.014153
      0.00000     10.87275     -1.15779         0.000000      0.061425     -0.016552
      0.00000      9.49847     -6.80069         0.000000      0.022527     -0.010246
      3.04842     10.86875     -1.14960        -0.020891      0.056691     -0.017014
      3.04662      9.49244     -6.80330        -0.002925      0.023791     -0.021994
      6.09428     10.86875     -1.14960         0.020891      0.056691     -0.017014
      6.09608      9.49244     -6.80330         0.002925      0.023791     -0.021994
      1.46918      1.51323     -1.82167        -0.073691      0.068841     -0.040165
      1.51659      0.13566     -7.40443        -0.018146      0.059850      0.033153
      4.57135      1.50904     -1.78730         0.000000      0.063551     -0.037458
      4.57135      0.12573     -7.43012         0.000000      0.066156      0.024152
      7.67353      1.51323     -1.82167         0.073691      0.068841     -0.040165
      7.62611      0.13566     -7.40443         0.018146      0.059850      0.033153
      0.00000      3.16338     -3.88027         0.000000     -0.138425     -0.010790
      0.00000      1.84924     -9.52929         0.000000     -0.075532     -0.018811
      3.04867      3.24543     -3.86942        -0.034840     -0.075663      0.019351
      3.04850      1.85215     -9.52713        -0.010846     -0.079231     -0.015594
      6.09403      3.24543     -3.86942         0.034840     -0.075663      0.019351
      6.09420      1.85215     -9.52713         0.010846     -0.079231     -0.015594
      0.00000      0.05995     -4.43227         0.000000     -0.048121     -0.027842
      0.00000     -1.36597    -10.13275         0.000000      0.018440     -0.031206
      3.04163      0.00925     -4.49117        -0.004620      0.000146      0.018680
      3.04073     -1.36464    -10.16967        -0.007747     -0.027533      0.002547
      6.10107      0.00925     -4.49117         0.004620      0.000146      0.018680
      6.10198     -1.36464    -10.16967         0.007747     -0.027533      0.002547
      1.53113      4.74610     -1.15574         0.007702     -0.016070     -0.042754
      1.52927      3.36712     -6.81568         0.003914      0.009308      0.020724
      4.57135      4.74264     -1.16039         0.000000      0.009065     -0.021891
      4.57135      3.35849     -6.80503         0.000000      0.024499      0.001557
      7.61158      4.74610     -1.15574        -0.007702     -0.016070     -0.042754
      7.61343      3.36712     -6.81568        -0.003914      0.009308      0.020724
      1.52976     11.86158     -1.40330         0.009723     -0.258189      0.111676
      1.52560     10.49236     -7.09439         0.001412     -0.180500      0.131988
      4.57135     11.86605     -1.43680         0.000000     -0.205456      0.125044
      4.57135     10.49071     -7.09349         0.000000     -0.175243      0.123520
      7.61294     11.86158     -1.40330        -0.009723     -0.258189      0.111676
      7.61710     10.49236     -7.09439        -0.001412     -0.180500      0.131988
      0.00000      5.11847     -4.20831         0.000000      0.250524     -0.127268
      0.00000      3.77237     -9.85928         0.000000      0.181439     -0.117963
      3.05872      5.16834     -4.21786        -0.008848      0.201058     -0.118215
      3.05089      3.77360     -9.86199        -0.002925      0.180568     -0.117751
      6.08398      5.16834     -4.21786         0.008848      0.201058     -0.118215
      6.09181      3.77360     -9.86199         0.002925      0.180568     -0.117751
[...]
      7.55485      3.46349     -2.47962        -0.050462      0.108496      0.139437
      7.61621      2.03114     -8.12858        -0.002101      0.044819      0.106531
      1.55426      2.87330     -5.05902         0.016077      0.386634     -0.130305
      1.52837      1.48393    -10.68151         0.007230      0.388372     -0.048235
      4.57135      2.86994     -5.03935         0.000000      0.387145     -0.104509
      4.57135      1.46012    -10.68931         0.000000      0.399221     -0.061758
      7.58844      2.87330     -5.05902        -0.016077      0.386634     -0.130305
      7.61433      1.48393    -10.68151        -0.007230      0.388372     -0.048235
      0.00000      1.97302     -0.55759         0.000000     -0.425833      0.173804
      0.00000      0.49837     -6.25072         0.000000     -0.347779     -0.023369
      3.03095      1.88603     -0.64018         0.048148     -0.369851      0.129007
      3.05302      0.51282     -6.26835        -0.009969     -0.392733      0.047970
      6.11175      1.88603     -0.64018        -0.048148     -0.369851      0.129007
      6.08969      0.51282     -6.26835         0.009969     -0.392733      0.047970
      0.00000      1.37214     -3.12992         0.000000      0.031575     -0.027853
    total drift:                               -0.000167     -0.000304     -0.043201

  FREE ENERGIE OF THE ION-ELECTRON SYSTEM (eV)
  free  energy   TOTEN  =      -952.34058269 eV

  energy  without entropy=     -952.34058269  energy(sigma->0) =     -952.34058269

 writing wavefunctions