 vasp.6.4.2 20Jul23 (build Nov 12 2023 22:16:35) complex
 executed on              LinuxNV date 2025.03.07  20:57:32
 OpenACC runtime initialized ...    4 GPUs detected

 INCAR:
   PREC = Normal
   ENCUT = 450
   IBRION = -1
   ISPIN = 1
   NSW = 0
   ISIF = 2
   EDIFF = 1E-5
   EDIFFG = -5E-3
   ISTART = 0
   ICHARG = 0
   ISMEAR = 0
   SIGMA = 0.05
   LWAVE = .T.
   LCHARG = .T.
   LREAL = Auto
   NPAR = 1
   KPAR = 4
   NCORE = 1
   ALGO = All
   LHFCALC = .TRUE.
   HSE06 = .TRUE.
   HFSCREEN = 0.18
   TIME = 0.4
   AEXX = 0.35
   LMAXFOCK = 4
   PRECFOCK = Fast

 POTCAR:    PAW_PBE Ga_d 06Jul2010
 POTCAR:    PAW_PBE O 08Apr2002
 POTCAR:    PAW_PBE N 08Apr2002
 POTCAR:    PAW_PBE Ga_d 06Jul2010
   VRHFIN =Ga: s2p1

   TITEL  = PAW_PBE Ga_d 06Jul2010
   POMASS =   69.723; ZVAL   =   13.000    mass and valenz
   ENMAX  =  282.691; ENMIN  =  212.018 eV

   TITEL  = PAW_PBE O 08Apr2002
   POMASS =   16.000; ZVAL   =    6.000    mass and valenz
   ENMAX  =  400.000; ENMIN  =  300.000 eV

   TITEL  = PAW_PBE N 08Apr2002
   POMASS =   14.001; ZVAL   =    5.000    mass and valenz
   ENMAX  =  400.000; ENMIN  =  300.000 eV

 Optimization of the real space projectors (new method)

 maximal supplied QI-value         = 16.25
 optimisation between [QCUT,QGAM] = [ 10.73, 21.61] = [ 32.22,130.83] Ry
 Optimized for a Real-space Cutoff    1.42 Angstroem

   l    n(q)    QCUT    max X(q) W(low)/X(q) W(high)/X(q)  e(spline)
   2      8    10.726     7.143    0.22E-03    0.16E-03    0.73E-07
   2      8    10.726     5.586    0.40E-03    0.26E-03    0.10E-06
   0      9    10.726    12.382    0.25E-04    0.21E-05    0.37E-07
   0      9    10.726     6.622    0.42E-04    0.48E-05    0.77E-07
   1      9    10.726     7.935    0.27E-03    0.13E-04    0.16E-06
   1      9    10.726     2.425    0.23E-03    0.15E-04    0.14E-06
 Optimization of the real space projectors (new method)

[...]

   l    n(q)    QCUT    max X(q) W(low)/X(q) W(high)/X(q)  e(spline)
   0      8    10.645    20.381    0.38E-03    0.60E-03    0.15E-06
   0      8    10.645    15.268    0.40E-03    0.65E-03    0.17E-06
   1      7    10.645     5.964    0.30E-03    0.63E-03    0.18E-06
   1      7    10.645     5.382    0.24E-03    0.53E-03    0.16E-06
 Optimization of the real space projectors (new method)

 maximal supplied QI-value         = 25.13
 optimisation between [QCUT,QGAM] = [ 10.81, 21.61] = [ 32.71,130.83] Ry
 Optimized for a Real-space Cutoff    1.23 Angstroem

   l    n(q)    QCUT    max X(q) W(low)/X(q) W(high)/X(q)  e(spline)
   0      8    10.807    79.467    0.34E-03    0.68E-03    0.21E-06
   0      8    10.807    66.151    0.34E-03    0.67E-03    0.21E-06
   1      7    10.807    14.030    0.45E-03    0.13E-02    0.11E-05
   1      7    10.807     9.831    0.48E-03    0.13E-02    0.11E-05
  PAW_PBE Ga_d 06Jul2010                :
  PAW_PBE O 08Apr2002                   :
  PAW_PBE N 08Apr2002                   :

 POSCAR: Ga48 O72
  positions in direct lattice
  velocities in cartesian coordinates
 exchange correlation table for  LEXCH =        8
   RHO(1)=    0.500       N(1)  =     2000
   RHO(2)=  100.500       N(2)  =     4000

 ion  position               nearest neighbor table
   1  0.658  0.999  0.156-  85 1.94  83 1.95  79 1.96  67 2.00  65 2.08  61 2.08
   2  0.659  1.000  0.657-  86 1.94  84 1.95  80 1.95  68 2.03  66 2.08  62 2.08
   3  0.658  0.334  0.156-  87 1.94  81 1.95  79 1.96  69 2.00  63 2.08  61 2.08
   4  0.659  0.333  0.657-  88 1.94  82 1.95  80 1.95  70 2.03  64 2.08  62 2.08
   5  0.659  0.667  0.156-  89 1.94  81 1.95  83 1.95  71 2.02  63 2.07  65 2.07
   6  0.659  0.667  0.657-  90 1.94  82 1.95  84 1.95  72 2.02  64 2.08  66 2.08
   7  0.839  0.167  0.344- 120 1.93  73 1.97  75 1.97  61 2.01  67 2.11  69 2.11
   8  0.841  0.167  0.843-  91 1.95  74 1.95  76 1.95  62 2.02  68 2.07  70 2.07
   9  0.841  0.500  0.343-  92 1.94  77 1.95  75 1.96  63 2.03  69 2.06  71 2.07
  10  0.842  0.500  0.844-  93 1.94  78 1.95  76 1.96  64 2.02  72 2.08  70 2.08
  11  0.841  0.833  0.343-  94 1.94  77 1.95  73 1.96  65 2.03  67 2.06  71 2.07
  12  0.842  0.833  0.844-  95 1.94  78 1.95  74 1.96  66 2.02  72 2.08  68 2.08
  13  0.592  0.167  0.398-  80 1.84  55 1.85  57 1.85  61 1.87
  14  0.591  0.167  0.898-  79 1.84  56 1.85  58 1.85  62 1.87
  15  0.592  0.500  0.398-  82 1.84  59 1.85  57 1.85  63 1.87
  16  0.590  0.500  0.897-  81 1.84  60 1.85  58 1.85  64 1.87
  17  0.592  0.833  0.398-  84 1.84  59 1.85  55 1.85  65 1.87
  18  0.590  0.833  0.897-  83 1.84  60 1.85  56 1.85  66 1.87
  19  0.909  0.999  0.104-  74 1.84  53 1.84  67 1.86  49 1.86
  20  0.908  0.999  0.601-  73 1.84  54 1.85  50 1.86  68 1.87
  21  0.909  0.335  0.104-  76 1.84  51 1.84  69 1.86  49 1.86
  22  0.908  0.334  0.601-  75 1.84  52 1.85  50 1.86  70 1.87
  23  0.909  0.667  0.103-  78 1.84  51 1.85  53 1.85  71 1.87
  24  0.909  0.667  0.602-  77 1.84  52 1.85  54 1.85  72 1.88
  25  0.161  0.167  0.159- 114 1.95 116 1.95  49 1.97 102 2.01  96 2.07  98 2.07
  26  0.160  0.167  0.655- 115 1.95 117 1.95  50 1.96 103 2.02  97 2.08  99 2.08
  27  0.160  0.500  0.157-  51 1.95 118 1.95 116 1.96 104 2.02  98 2.06 100 2.07
  28  0.159  0.500  0.656-  52 1.95 117 1.95 119 1.95 105 2.03 101 2.08  99 2.08
  29  0.160  0.833  0.157-  53 1.95 118 1.95 114 1.96 106 2.02  96 2.06 100 2.07
  30  0.159  0.833  0.656-  54 1.95 115 1.95 119 1.95 107 2.03 101 2.08  97 2.08
  31  0.342  1.000  0.344-  55 1.94 112 1.95 108 1.95  96 2.01 106 2.08 102 2.08
  32  0.341  0.000  0.843-  56 1.94 113 1.95 109 1.95  97 2.03 107 2.07 103 2.07
  33  0.342  0.334  0.344-  57 1.94 110 1.95 108 1.95  98 2.01 104 2.08 102 2.08
  34  0.341  0.333  0.843-  58 1.94 111 1.95 109 1.95  99 2.03 105 2.07 103 2.07
  35  0.342  0.667  0.344-  59 1.94 110 1.95 112 1.95 100 2.02 104 2.08 106 2.08
  36  0.340  0.667  0.843-  60 1.94 111 1.96 113 1.96 101 2.02 105 2.07 107 2.07
  37  0.090  1.000  0.397-  94 1.85 115 1.85 120 1.87  96 1.89
  38  0.091  1.000  0.897- 114 1.84  95 1.85  91 1.85  97 1.87
  39  0.090  0.333  0.397-  92 1.85 117 1.85 120 1.87  98 1.89
  40  0.091  0.334  0.897- 116 1.84  93 1.85  91 1.85  99 1.87
  41  0.092  0.667  0.398-  92 1.84  94 1.84 119 1.84 100 1.87
  42  0.091  0.667  0.898- 118 1.84  93 1.85  95 1.85 101 1.87
  43  0.409  0.167  0.102- 109 1.84  85 1.85  87 1.85 102 1.87
  44  0.410  0.167  0.603- 108 1.84  86 1.85  88 1.85 103 1.87
  45  0.409  0.500  0.102- 111 1.84  89 1.84  87 1.85 104 1.87
  46  0.409  0.500  0.603- 110 1.84  90 1.85  88 1.85 105 1.87
  47  0.409  0.833  0.102- 113 1.84  89 1.84  85 1.85 106 1.87
  48  0.409  0.833  0.603- 112 1.84  90 1.85  86 1.85 107 1.87
  49  0.997  0.167  0.138-  19 1.86  21 1.86  25 1.97
  50  0.996  0.167  0.620-  20 1.86  22 1.86  26 1.96
  51  0.997  0.500  0.128-  21 1.84  23 1.85  27 1.95
  52  0.996  0.500  0.627-  22 1.85  24 1.85  28 1.95
  53  0.997  0.833  0.128-  19 1.84  23 1.85  29 1.95
  54  0.996  0.833  0.627-  20 1.85  24 1.85  30 1.95
  55  0.504  1.000  0.373-  13 1.85  17 1.85  31 1.94
  56  0.503  0.000  0.873-  14 1.85  18 1.85  32 1.94
  57  0.504  0.333  0.373-  13 1.85  15 1.85  33 1.94
  58  0.503  0.333  0.873-  14 1.85  16 1.85  34 1.94
  59  0.504  0.667  0.373-  15 1.85  17 1.85  35 1.94
  60  0.503  0.667  0.872-  16 1.85  18 1.85  36 1.94
[...]
 106  0.328  0.833  0.220-  47 1.87  29 2.02  35 2.08  31 2.08
 107  0.328  0.833  0.720-  48 1.87  30 2.03  32 2.07  36 2.07
 108  0.333  0.167  0.446-  44 1.84  31 1.95  33 1.95
 109  0.332  0.167  0.946-  43 1.84  32 1.95  34 1.95
 110  0.333  0.500  0.446-  46 1.84  33 1.95  35 1.95
 111  0.331  0.500  0.946-  45 1.84  34 1.95  36 1.96
 112  0.333  0.833  0.446-  48 1.84  31 1.95  35 1.95
 113  0.331  0.834  0.946-  47 1.84  32 1.95  36 1.96
 114  0.166  0.001  0.055-  38 1.84  25 1.95  29 1.96
 115  0.169  0.999  0.554-  37 1.85  30 1.95  26 1.95
 116  0.166  0.332  0.055-  40 1.84  25 1.95  27 1.96
 117  0.169  0.334  0.554-  39 1.85  28 1.95  26 1.95
 118  0.168  0.667  0.054-  42 1.84  27 1.95  29 1.95
 119  0.168  0.667  0.554-  41 1.84  28 1.95  30 1.95
 120  0.000  0.167  0.369-  37 1.87  39 1.87   7 1.93

  LATTYP: Found a simple monoclinic cell.
 ALAT       =    11.6348202465
 B/A-ratio  =     0.7858051831
 C/A-ratio  =     1.0554931797
 COS(beta)  =    -0.2379290539

  Lattice vectors:

 A1 = (   0.0000000000,  -2.7682617730, -11.3006977184)
 A2 = (  -9.1427020537,   0.0000000000,   0.0000000000)
 A3 = (   0.0000000000,  12.2804734172,   0.0000000000)

Analysis of symmetry for initial positions (statically):
 Subroutine PRICEL returns:
 Original cell was already a primitive cell.

 Routine SETGRP: Setting up the symmetry group for a
 simple monoclinic supercell.

 Subroutine GETGRP returns: Found  2 space group operations
 (whereof  1 operations were pure point group operations)
 out of a pool of  4 trial point group operations.

The static configuration has the point symmetry C_1 .
 The point group associated with its full space group is C_1h.

Analysis of symmetry for dynamics (positions and initial velocities):
 Subroutine PRICEL returns:
 Original cell was already a primitive cell.

 Routine SETGRP: Setting up the symmetry group for a
 simple monoclinic supercell.

 Subroutine GETGRP returns: Found  2 space group operations
 (whereof  1 operations were pure point group operations)
 out of a pool of  4 trial point group operations.

The dynamic configuration has the point symmetry C_1 .
 The point group associated with its full space group is C_1h.

 Subroutine INISYM returns: Found  2 space group operations
 (whereof  1 operations are pure point group operations),
 and found     1 'primitive' translations

                                     Primitive cell

  volume of cell :    1268.8052

  direct lattice vectors                    reciprocal lattice vectors
     0.000000000 12.280473417  0.000000000     0.000000000  0.081430085 -0.019947423
     9.142702054  0.000000000  0.000000000     0.109376855 -0.000000000  0.000000000
     0.000000000 -2.768261773-11.300697718     0.000000000  0.000000000 -0.088490111

  length of vectors
    12.280473417  9.142702054 11.634820246     0.083837691  0.109376855  0.088490111

  position of ions in fractional coordinates (direct lattice)
     0.658411526  0.999368393  0.155947260
     0.659240521  0.999882455  0.656850370
     0.658411526  0.333964940  0.155947260
     0.659240521  0.333450879  0.656850370
     0.658672115  0.666666667  0.156272035
     0.659421541  0.666666667  0.656966991
     0.839158206  0.166666667  0.343584098
     0.841099253  0.166666667  0.843198462
     0.840694200  0.500492321  0.342871427
     0.841632944  0.500126396  0.843811297
     0.840694200  0.832841012  0.342871427
     0.841632944  0.833206937  0.843811297
     0.591543066  0.166666667  0.397879367
     0.590777455  0.166666667  0.897520854
     0.591732535  0.500138867  0.397801981
     0.590499251  0.500136749  0.897080378
     0.591732535  0.833194466  0.397801981
     0.590499251  0.833196585  0.897080378
     0.908558745  0.998799704  0.103737896
     0.907744549  0.999070333  0.601114796
     0.908558745  0.334533630  0.103737896
[...]
     52     -17.3706      2.00000
     53     -17.3618      2.00000
     54     -17.3572      2.00000
     55     -17.3518      2.00000
     56     -17.3116      2.00000
     57     -17.2966      2.00000
     58     -17.2947      2.00000
     59     -17.2903      2.00000
     60     -17.2848      2.00000
[...]
    619      16.1792      0.00000
    620      16.2754      0.00000
    621      16.3839      0.00000
    622      16.4626      0.00000
    623      16.6126      0.00000
    624      16.7681      0.00000
    625      16.8510      0.00000
    626      16.9481      0.00000
    627      17.0876      0.00000
    628      17.1010      0.00000
    629      17.1568      0.00000
    630      17.3020      0.00000
    631      17.3506      0.00000
    632      17.4820      0.00000
    633      17.5485      0.00000

 soft charge-density along one line, spin component            1
         0         1         2         3         4         5         6         7         8         9
 total charge-density along one line

------------------------ aborting loop because EDIFF is reached ----------------------------------------

  FORCE on cell =-STRESS in cart. coord.  units (eV):
  Direction    XX          YY          ZZ          XY          YZ          ZX
  Alpha Z  5530.94813  5530.94813  5530.94813
  Ewald  -25135.03586-32326.03904-31307.46416     0.00000 -1706.16945    -0.00000
  Hartree 14069.62837  9548.83251 10225.91931    -0.00000 -1163.69472     0.00002
  E(xc)   -3922.30093 -3925.01069 -3924.23733    -0.00000    -0.42535    -0.00000
  Local   -5859.19531  5696.89181  3987.37373    -0.00001  2839.09125    -0.00018
  n-local  6785.25672  6730.76460  6750.91464    -0.00001    -7.32315    -0.00007
  augment  5425.50109  5447.90430  5454.16013     0.00001     5.66827     0.00001
  Kinetic 12405.65989 12602.87913 12582.11720     0.00004    33.29929     0.00028
  Fock    -9344.85869 -9349.25892 -9343.87404     0.00000     0.51500    -0.00001
  Total     -44.39659   -42.08817   -44.14240     0.00000     0.96115     0.00000
  in kB     -56.06157   -53.14663   -55.74059     0.00000     1.21369     0.00000

 VOLUME and BASIS-vectors are now :
  energy-cutoff  :      450.00
  volume of cell :     1268.81
      direct lattice vectors                 reciprocal lattice vectors
     0.000000000 12.280473417  0.000000000     0.000000000  0.081430085 -0.019947423
     9.142702054  0.000000000  0.000000000     0.109376855 -0.000000000  0.000000000
     0.000000000 -2.768261773-11.300697718     0.000000000  0.000000000 -0.088490111

  length of vectors
    12.280473417  9.142702054 11.634820246     0.083837691  0.109376855  0.088490111

 FORCES acting on ions:
    Electron-Ion                     Ewald-Force                    Non-Local-Force
   -.104E+02 0.384E+02 -.850E+02   0.101E+02 -.374E+02 0.894E+02   0.263E+00 -.819E+00 -.413E+01
   -.249E+01 0.371E+02 -.755E+02   0.240E+01 -.367E+02 0.802E+02   0.882E-01 -.233E+00 -.440E+01
   0.104E+02 0.384E+02 -.850E+02   -.101E+02 -.374E+02 0.894E+02   -.263E+00 -.819E+00 -.413E+01
   0.249E+01 0.371E+02 -.755E+02   -.240E+01 -.367E+02 0.802E+02   -.882E-01 -.233E+00 -.440E+01
   -.147E-03 0.368E+02 -.884E+02   0.190E-10 -.364E+02 0.926E+02   0.000E+00 -.234E+00 -.397E+01
   0.703E-04 0.394E+02 -.760E+02   0.239E-10 -.388E+02 0.808E+02   0.000E+00 -.415E+00 -.451E+01
   0.639E-04 -.972E+02 0.950E+02   0.254E-11 0.101E+03 -.997E+02   0.000E+00 -.405E+01 0.455E+01
   0.276E-03 -.538E+02 0.924E+02   0.583E-11 0.534E+02 -.969E+02   0.000E+00 0.320E+00 0.420E+01
   0.143E+02 -.624E+02 0.888E+02   -.143E+02 0.618E+02 -.930E+02   -.857E-02 0.461E+00 0.400E+01
   0.761E+01 -.455E+02 0.869E+02   -.734E+01 0.451E+02 -.914E+02   -.261E+00 0.220E+00 0.422E+01
   -.143E+02 -.624E+02 0.888E+02   0.143E+02 0.618E+02 -.930E+02   0.857E-02 0.461E+00 0.400E+01
   -.761E+01 -.455E+02 0.869E+02   0.734E+01 0.451E+02 -.914E+02   0.261E+00 0.220E+00 0.422E+01
   0.316E-04 -.462E+02 0.284E+02   0.560E-10 0.438E+02 -.300E+02   0.000E+00 0.212E+01 0.153E+01
   0.380E-04 -.546E+02 0.300E+02   0.873E-11 0.526E+02 -.319E+02   0.000E+00 0.182E+01 0.184E+01
   0.246E+01 -.445E+02 0.320E+02   -.235E+01 0.423E+02 -.334E+02   -.979E-01 0.195E+01 0.127E+01
   0.251E+01 -.522E+02 0.270E+02   -.253E+01 0.502E+02 -.291E+02   0.102E-01 0.174E+01 0.198E+01
   -.246E+01 -.445E+02 0.320E+02   0.235E+01 0.423E+02 -.334E+02   0.979E-01 0.195E+01 0.127E+01
   -.251E+01 -.522E+02 0.270E+02   0.253E+01 0.502E+02 -.291E+02   -.102E-01 0.174E+01 0.198E+01
   -.247E+02 0.271E+02 -.372E+02   0.236E+02 -.259E+02 0.385E+02   0.102E+01 -.101E+01 -.125E+01
   -.179E+02 0.238E+02 -.234E+02   0.174E+02 -.221E+02 0.255E+02   0.554E+00 -.146E+01 -.201E+01
   0.247E+02 0.271E+02 -.372E+02   -.236E+02 -.259E+02 0.385E+02   -.102E+01 -.101E+01 -.125E+01
   0.179E+02 0.238E+02 -.234E+02   -.174E+02 -.221E+02 0.255E+02   -.554E+00 -.146E+01 -.201E+01
   -.279E-03 0.395E+02 -.326E+02   0.264E-10 -.374E+02 0.342E+02   0.000E+00 -.185E+01 -.153E+01
   -.514E-04 0.369E+02 -.247E+02   0.390E-11 -.348E+02 0.264E+02   0.000E+00 -.182E+01 -.168E+01
   0.305E-03 0.690E+02 -.932E+02   0.447E-10 -.672E+02 0.974E+02   0.000E+00 -.157E+01 -.390E+01
   -.282E-05 0.658E+02 -.965E+02   0.473E-10 -.644E+02 0.101E+03   0.000E+00 -.122E+01 -.423E+01
   0.654E+01 0.494E+02 -.899E+02   -.666E+01 -.489E+02 0.939E+02   0.109E+00 -.336E+00 -.381E+01
   0.852E+01 0.531E+02 -.857E+02   -.854E+01 -.524E+02 0.904E+02   0.281E-01 -.560E+00 -.447E+01
   -.654E+01 0.494E+02 -.899E+02   0.666E+01 -.489E+02 0.939E+02   -.109E+00 -.336E+00 -.381E+01
   -.852E+01 0.531E+02 -.857E+02   0.854E+01 -.524E+02 0.904E+02   -.281E-01 -.560E+00 -.447E+01
   -.562E+01 -.321E+02 0.824E+02   0.548E+01 0.314E+02 -.870E+02   0.126E+00 0.557E+00 0.434E+01
   -.341E+01 -.327E+02 0.827E+02   0.332E+01 0.323E+02 -.871E+02   0.852E-01 0.264E+00 0.416E+01
   0.562E+01 -.321E+02 0.824E+02   -.548E+01 0.314E+02 -.870E+02   -.126E+00 0.557E+00 0.434E+01
   0.341E+01 -.327E+02 0.827E+02   -.332E+01 0.323E+02 -.871E+02   -.852E-01 0.264E+00 0.416E+01
   0.444E-04 -.351E+02 0.810E+02   0.623E-10 0.348E+02 -.856E+02   0.000E+00 0.234E+00 0.438E+01
   -.720E-04 -.361E+02 0.845E+02   -.327E-11 0.356E+02 -.887E+02   0.000E+00 0.375E+00 0.401E+01
   -.512E+02 -.157E+02 0.279E+02   0.541E+02 0.111E+02 -.285E+02   -.327E+01 0.462E+01 0.518E+00
   -.108E+02 -.408E+02 0.304E+02   0.109E+02 0.384E+02 -.321E+02   -.203E-01 0.212E+01 0.154E+01
   0.512E+02 -.157E+02 0.279E+02   -.541E+02 0.111E+02 -.285E+02   0.327E+01 0.462E+01 0.518E+00
   0.108E+02 -.408E+02 0.304E+02   -.109E+02 0.384E+02 -.321E+02   0.203E-01 0.212E+01 0.154E+01
   -.616E-04 -.502E+02 0.305E+02   0.359E-10 0.472E+02 -.320E+02   0.000E+00 0.266E+01 0.146E+01
   -.153E-03 -.432E+02 0.304E+02   0.252E-10 0.410E+02 -.320E+02   0.000E+00 0.198E+01 0.154E+01
   -.542E-04 0.546E+02 -.322E+02   0.359E-10 -.524E+02 0.337E+02   0.000E+00 -.192E+01 -.147E+01
   -.520E-04 0.543E+02 -.325E+02   0.332E-10 -.521E+02 0.343E+02   0.000E+00 -.194E+01 -.172E+01
   0.404E+01 0.529E+02 -.323E+02   -.390E+01 -.509E+02 0.338E+02   -.122E+00 -.182E+01 -.138E+01
   0.220E+01 0.522E+02 -.316E+02   -.216E+01 -.500E+02 0.334E+02   -.401E-01 -.195E+01 -.173E+01
   -.404E+01 0.529E+02 -.323E+02   0.390E+01 -.509E+02 0.338E+02   0.122E+00 -.182E+01 -.138E+01
   -.220E+01 0.522E+02 -.316E+02   0.216E+01 -.500E+02 0.334E+02   0.401E-01 -.195E+01 -.173E+01
   0.133E-03 -.156E+02 0.289E+02   0.302E-10 0.224E+02 -.355E+02   0.000E+00 -.576E+01 0.564E+01
   0.609E-04 -.252E+02 0.597E+00   0.529E-11 0.331E+02 -.219E+01   0.000E+00 -.671E+01 0.137E+01
   0.509E+01 -.214E+02 0.133E+02   -.507E+01 0.291E+02 -.170E+02   -.146E-01 -.650E+01 0.307E+01
   0.566E+01 -.213E+02 0.159E+02   -.565E+01 0.288E+02 -.199E+02   -.384E-02 -.630E+01 0.343E+01
   -.509E+01 -.214E+02 0.133E+02   0.507E+01 0.291E+02 -.170E+02   0.146E-01 -.650E+01 0.307E+01
   -.566E+01 -.213E+02 0.159E+02   0.565E+01 0.288E+02 -.199E+02   0.384E-02 -.630E+01 0.343E+01
   -.750E+00 0.190E+02 -.157E+02   0.678E+00 -.262E+02 0.195E+02   0.595E-01 0.611E+01 -.322E+01
   -.113E+01 0.169E+02 -.138E+02   0.114E+01 -.242E+02 0.176E+02   -.170E-01 0.618E+01 -.316E+01
   0.750E+00 0.190E+02 -.157E+02   -.678E+00 -.262E+02 0.195E+02   -.595E-01 0.611E+01 -.322E+01
   0.113E+01 0.169E+02 -.138E+02   -.114E+01 -.242E+02 0.176E+02   0.170E-01 0.618E+01 -.316E+01
   0.295E-04 0.193E+02 -.141E+02   0.351E-10 -.265E+02 0.178E+02   0.000E+00 0.613E+01 -.311E+01
   -.309E-04 0.171E+02 -.146E+02   -.525E-12 -.244E+02 0.185E+02   0.000E+00 0.619E+01 -.326E+01
[...]
   -.106E+01 -.621E+02 -.393E+02   0.997E+00 0.601E+02 0.348E+02   0.538E-01 0.170E+01 0.387E+01
   -.505E-04 0.129E+03 0.602E+02   0.322E-10 -.142E+03 -.566E+02   0.000E+00 0.106E+02 -.309E+01
   0.162E-04 0.127E+03 0.627E+02   0.857E-11 -.139E+03 -.592E+02   0.000E+00 0.108E+02 -.294E+01
   0.138E+01 0.125E+03 0.623E+02   -.132E+01 -.138E+03 -.587E+02   -.537E-01 0.107E+02 -.301E+01
   0.197E+01 0.125E+03 0.628E+02   -.195E+01 -.138E+03 -.594E+02   -.107E-01 0.108E+02 -.292E+01
   -.138E+01 0.125E+03 0.623E+02   0.132E+01 -.138E+03 -.587E+02   0.537E-01 0.107E+02 -.301E+01
   -.197E+01 0.125E+03 0.628E+02   0.195E+01 -.138E+03 -.594E+02   0.107E-01 0.108E+02 -.292E+01
   -.501E+01 -.109E+03 -.643E+02   0.496E+01 0.121E+03 0.607E+02   0.273E-01 -.100E+02 0.298E+01
   -.633E+01 -.115E+03 -.743E+02   0.624E+01 0.127E+03 0.716E+02   0.105E+00 -.109E+02 0.229E+01
   0.501E+01 -.109E+03 -.643E+02   -.496E+01 0.121E+03 0.607E+02   -.273E-01 -.100E+02 0.298E+01
   0.633E+01 -.115E+03 -.743E+02   -.624E+01 0.127E+03 0.716E+02   -.105E+00 -.109E+02 0.229E+01
   -.847E-04 -.117E+03 -.637E+02   0.202E-10 0.129E+03 0.602E+02   0.000E+00 -.106E+02 0.299E+01
   -.245E-04 -.119E+03 -.653E+02   0.282E-10 0.132E+03 0.619E+02   0.000E+00 -.108E+02 0.283E+01
   0.112E-03 0.603E+01 -.105E+02   0.218E-10 -.112E+02 0.131E+02   0.000E+00 0.466E+01 -.244E+01
   0.415E-04 -.174E+01 -.760E+00   0.329E-13 0.437E-12 0.568E-13   0.278E-16 0.202E+01 0.142E+00

 POSITION                                       TOTAL-FORCE (eV/Angst)
      9.13693      7.65390     -1.76231        -0.009058      0.076227      0.015258
      9.14163      6.27745     -7.42287         0.001204      0.084992      0.003218
      3.05334      7.65390     -1.76231         0.009058      0.076227      0.015258
      3.04864      6.27745     -7.42287        -0.001204      0.084992      0.003218
      6.09513      7.65620     -1.76598         0.000000      0.062591      0.008362
      6.09513      6.27935     -7.42419         0.000000      0.083662      0.012508
      1.52378      9.35413     -3.88274         0.000000     -0.452097      0.052327
      1.52378      7.99490     -9.52873         0.000000     -0.028639     -0.027949
      4.57585      9.37496     -3.87469         0.009262     -0.126053      0.009022
      4.57251      7.99976     -9.53566        -0.010830     -0.066368     -0.014766
      7.61442      9.37496     -3.87469        -0.009262     -0.126053      0.009022
      7.61776      7.99976     -9.53566         0.010830     -0.066368     -0.014766
      1.52378      6.16299     -4.49631         0.000000     -0.027642      0.008245
      1.52378      4.77045    -10.14261         0.000000     -0.017128      0.011942
      4.57262      6.16554     -4.49544         0.000668     -0.026240      0.015090
      4.57260      4.76826    -10.13763        -0.001965     -0.014993      0.005867
      7.61765      6.16554     -4.49544        -0.000668     -0.026240      0.015090
      7.61767      4.76826    -10.13763         0.001965     -0.014993      0.005867
      9.13173     10.87036     -1.17231         0.039493      0.055541     -0.000707
      9.13420      9.48349     -6.79302         0.027774      0.024268     -0.037382
      3.05854     10.87036     -1.17231        -0.039493      0.055541     -0.000707
      3.05607      9.48349     -6.79302        -0.027774      0.024268     -0.037382
      6.09513     10.88324     -1.16373         0.000000      0.028076      0.000455
      6.09513      9.49392     -6.80162         0.000000      0.015539     -0.033032
      1.52378      1.53564     -1.79393         0.000000      0.048441      0.064911
      1.52378      0.15036     -7.40364         0.000000      0.049739     -0.037449
      4.57191      1.52596     -1.77780        -0.004867      0.073555      0.028022
      4.57181      0.13579     -7.41571         0.008874      0.070652     -0.014020
      7.61836      1.52596     -1.77780         0.004867      0.073555      0.028022
      7.61846      0.13579     -7.41571        -0.008874      0.070652     -0.014020
      9.13893      3.24618     -3.88764        -0.008034     -0.056797     -0.014212
      0.00024      1.84997     -9.52702        -0.000567     -0.076911     -0.008861
      3.05134      3.24618     -3.88764         0.008034     -0.056797     -0.014212
      3.04733      1.84997     -9.52702         0.000567     -0.076911     -0.008861
      6.09513      3.24622     -3.88226         0.000000     -0.062194     -0.012702
      6.09513      1.84688     -9.52972         0.000000     -0.078452     -0.003632
      9.14224      0.00778     -4.48471        -0.369514      0.235713     -0.041041
      9.14108     -1.36157    -10.14223         0.039711     -0.063933      0.012095
      3.04803      0.00778     -4.48471         0.369514      0.235713     -0.041041
      3.04919     -1.36157    -10.14223        -0.039711     -0.063933      0.012095
      6.09513      0.02304     -4.49517         0.000000     -0.007633      0.008311
      6.09513     -1.36260    -10.14672         0.000000     -0.035655      0.018261
      1.52378      4.73949     -1.15309         0.000000      0.023870     -0.010602
      1.52378      3.36167     -6.80873         0.000000      0.034990     -0.025323
      4.57208      4.73901     -1.15318         0.000135      0.020527     -0.013347
      4.57258      3.35682     -6.81202         0.001084      0.034268     -0.017225
      7.61819      4.73901     -1.15318        -0.000135      0.020527     -0.013347
      7.61769      3.35682     -6.81202        -0.001084      0.034268     -0.017225
      1.52378     11.85796     -1.55492         0.000000     -0.194221      0.169840
      1.52378     10.50998     -7.01075         0.000000     -0.196588      0.091759
      4.57225     11.88909     -1.44409         0.009859     -0.198210      0.108782
      4.57012     10.49838     -7.08520         0.006770     -0.183367      0.145871
      7.61802     11.88909     -1.44409        -0.009859     -0.198210      0.108782
      7.62015     10.49838     -7.08520        -0.006770     -0.183367      0.145871
      9.14219      5.16050     -4.21584        -0.000301      0.180615     -0.125382
      0.00069      3.76519     -9.86091        -0.003781      0.179341     -0.123370
      3.04808      5.16050     -4.21584         0.000301      0.180615     -0.125382
      3.04688      3.76519     -9.86091         0.003781      0.179341     -0.123370
      6.09513      5.15834     -4.21755         0.000000      0.181948     -0.119644
      6.09513      3.76262     -9.85598         0.000000      0.179403     -0.125895
[...]
      7.61746      3.42238     -2.48109         0.001858      0.030134      0.119935
      7.61972      2.02960     -8.13459         0.003838      0.032172      0.133066
      1.52378      2.85907     -5.03954         0.000000      0.420196     -0.082789
      1.52378      1.45408    -10.68557         0.000000      0.437239     -0.075913
      4.57462      2.85722     -5.04193        -0.005693      0.428507     -0.080713
      4.56847      1.45023    -10.68611         0.004210      0.439269     -0.075813
      7.61565      2.85722     -5.04193         0.005693      0.428507     -0.080713
      7.62180      1.45023    -10.68611        -0.004210      0.439269     -0.075813
      0.00855      1.89222     -0.61688        -0.016447     -0.393626      0.060900
      9.13312      0.54424     -6.25968         0.040550     -0.469244      0.123325
      3.03902      1.89222     -0.61688         0.016447     -0.393626      0.060900
      3.05715      0.54424     -6.25968        -0.040550     -0.469244      0.123325
      6.09513      1.91398     -0.61566         0.000000     -0.426400      0.072379
      6.09513      0.53427     -6.26549         0.000000     -0.440001      0.088253
      1.52378     -1.01924     -4.16809         0.000000      0.113306     -0.106769
    total drift:                                0.000042      0.064811     -0.054919

  FREE ENERGIE OF THE ION-ELECTRON SYSTEM (eV)
  free  energy   TOTEN  =      -986.44269913 eV

  energy  without entropy=     -986.41928553  energy(sigma->0) =     -986.43099233

 writing wavefunctions