 vasp.6.4.2 20Jul23 (build Nov 12 2023 22:16:35) complex
 executed on              LinuxNV date 2025.03.25  16:03:09
 OpenACC runtime initialized ...    4 GPUs detected

 INCAR:
   PREC = Normal
   ENCUT = 450
   NELM = 500
   IBRION = -1
   ISPIN = 1
   NSW = 0
   ISIF = 2
   EDIFF = 1E-5
   EDIFFG = -5E-3
   ISTART = 0
   ICHARG = 0
   ISMEAR = 0
   SIGMA = 0.05
   LWAVE = .T.
   LCHARG = .T.
   LREAL = Auto
   LPLANE = .TRUE.
   NPAR = 1
   KPAR = 4
   NCORE = 1
   ALGO = All
   LHFCALC = .TRUE.
   HSE06 = .TRUE.
   HFSCREEN = 0.2
   TIME = 0.4
   AEXX = 0.32
   LMAXFOCK = 4
   PRECFOCK = Fast

 POTCAR:    PAW_PBE Ga_d 06Jul2010
 POTCAR:    PAW_PBE O 08Apr2002
 POTCAR:    PAW_PBE Ga_d 06Jul2010
   VRHFIN =Ga: s2p1

   TITEL  = PAW_PBE Ga_d 06Jul2010
   POMASS =   69.723; ZVAL   =   13.000    mass and valenz
   ENMAX  =  282.691; ENMIN  =  212.018 eV

   TITEL  = PAW_PBE O 08Apr2002
   POMASS =   16.000; ZVAL   =    6.000    mass and valenz
   ENMAX  =  400.000; ENMIN  =  300.000 eV

 Optimization of the real space projectors (new method)

 maximal supplied QI-value         = 16.25
 optimisation between [QCUT,QGAM] = [ 10.73, 21.61] = [ 32.22,130.83] Ry
 Optimized for a Real-space Cutoff    1.42 Angstroem

   l    n(q)    QCUT    max X(q) W(low)/X(q) W(high)/X(q)  e(spline)
   2      8    10.726     7.143    0.22E-03    0.16E-03    0.73E-07
   2      8    10.726     5.586    0.40E-03    0.26E-03    0.10E-06
   0      9    10.726    12.382    0.25E-04    0.21E-05    0.37E-07
   0      9    10.726     6.622    0.42E-04    0.48E-05    0.77E-07
   1      9    10.726     7.935    0.27E-03    0.13E-04    0.16E-06
   1      9    10.726     2.425    0.23E-03    0.15E-04    0.14E-06
 Optimization of the real space projectors (new method)

 maximal supplied QI-value         = 24.76
 optimisation between [QCUT,QGAM] = [ 10.64, 21.54] = [ 31.73,129.89] Ry
 Optimized for a Real-space Cutoff    1.23 Angstroem

   l    n(q)    QCUT    max X(q) W(low)/X(q) W(high)/X(q)  e(spline)
   0      8    10.645    20.381    0.38E-03    0.60E-03    0.15E-06
   0      8    10.645    15.268    0.40E-03    0.65E-03    0.17E-06
   1      7    10.645     5.964    0.30E-03    0.63E-03    0.18E-06
   1      7    10.645     5.382    0.24E-03    0.53E-03    0.16E-06
  PAW_PBE Ga_d 06Jul2010                :
  PAW_PBE O 08Apr2002                   :

 POSCAR: Ga8 O12
  positions in direct lattice
  velocities in cartesian coordinates
 exchange correlation table for  LEXCH =        8
   RHO(1)=    0.500       N(1)  =     2000
   RHO(2)=  100.500       N(2)  =     4000

 ion  position               nearest neighbor table
   1  0.659  0.000  0.313-  15 1.94  14 1.95  14 1.95  12 2.01  11 2.09  11 2.09
   2  0.841  0.500  0.687-  16 1.94  13 1.95  13 1.95  11 2.01  12 2.09  12 2.09
   3  0.591  0.500  0.795-  14 1.84  10 1.85  10 1.85  11 1.87
   4  0.909  0.000  0.205-  13 1.84   9 1.85   9 1.85  12 1.87
   5  0.159  0.500  0.313-   9 1.94  20 1.95  20 1.95  18 2.01  17 2.09  17 2.09
   6  0.341  0.000  0.687-  10 1.94  19 1.95  19 1.95  17 2.01  18 2.09  18 2.09
   7  0.091  0.000  0.795-  20 1.84  16 1.85  16 1.85  17 1.87
   8  0.409  0.500  0.205-  19 1.84  15 1.85  15 1.85  18 1.87
   9  0.997  0.500  0.256-   4 1.85   4 1.85   5 1.94
  10  0.503  0.000  0.744-   3 1.85   3 1.85   6 1.94
  11  0.674  0.500  0.563-   3 1.87   2 2.01   1 2.09   1 2.09
  12  0.826  0.000  0.437-   4 1.87   1 2.01   2 2.09   2 2.09
  13  0.833  0.000  0.893-   4 1.84   2 1.95   2 1.95
  14  0.667  0.500  0.107-   3 1.84   1 1.95   1 1.95
  15  0.497  0.000  0.256-   8 1.85   8 1.85   1 1.94
  16  0.003  0.500  0.744-   7 1.85   7 1.85   2 1.94
  17  0.174  0.000  0.563-   7 1.87   6 2.01   5 2.09   5 2.09
  18  0.326  0.500  0.437-   8 1.87   5 2.01   6 2.09   6 2.09
  19  0.333  0.500  0.893-   8 1.84   6 1.95   6 1.95
  20  0.167  0.000  0.107-   7 1.84   5 1.95   5 1.95

  LATTYP: Found a simple monoclinic cell.
 ALAT       =     5.8174101232
 B/A-ratio  =     0.5238701220
 C/A-ratio  =     2.1099131345
 COS(beta)  =    -0.2359030828

  Lattice vectors:

 A1 = (   0.0000000000,  -1.3841308865,  -5.6503488592)
 A2 = (   3.0475673512,   0.0000000000,   0.0000000000)
 A3 = (   0.0000000000, -10.8963425307,   5.6503488592)

Analysis of symmetry for initial positions (statically):
 Subroutine PRICEL returns following result:

  LATTYP: Found a base centered monoclinic cell.
 ALAT       =    12.2804734172
 B/A-ratio  =     0.2481636699
 C/A-ratio  =     0.4737122036
 COS(beta)  =    -0.2379290539

[...]

   2 primitive cells build up your supercell.

 Routine SETGRP: Setting up the symmetry group for a
 simple monoclinic supercell.

 Subroutine GETGRP returns: Found  4 space group operations
 (whereof  4 operations were pure point group operations)
 out of a pool of  4 trial point group operations.

The static configuration has the point symmetry C_2h.

Analysis of symmetry for dynamics (positions and initial velocities):
 Subroutine PRICEL returns following result:

  LATTYP: Found a base centered monoclinic cell.
 ALAT       =    12.2804734172
 B/A-ratio  =     0.2481636699
 C/A-ratio  =     0.4737122036
 COS(beta)  =    -0.2379290539

  Lattice vectors:

 A1 = (  -1.5237836756,   6.1402367086,   0.0000000000)
 A2 = (   1.5237836756,   6.1402367086,   0.0000000000)
 A3 = (   0.0000000000,  -1.3841308865,  -5.6503488592)

   2 primitive cells build up your supercell.

 Routine SETGRP: Setting up the symmetry group for a
 simple monoclinic supercell.

 Subroutine GETGRP returns: Found  4 space group operations
 (whereof  4 operations were pure point group operations)
 out of a pool of  4 trial point group operations.

The dynamic configuration has the point symmetry C_2h.

 Subroutine INISYM returns: Found  4 space group operations
 (whereof  4 operations are pure point group operations),
 and found     2 'primitive' translations

                                     Primitive cell

  volume of cell :     105.7338

  direct lattice vectors                    reciprocal lattice vectors
    -1.523783676  6.140236709  0.000000000    -0.328130566  0.081430085 -0.019947423
     1.523783676  6.140236709  0.000000000     0.328130566  0.081430085 -0.019947423
     0.000000000 -1.384130887 -5.650348859     0.000000000  0.000000000 -0.176980223

  length of vectors
     6.326485875  6.326485875  5.817410123     0.338671562  0.338671562  0.176980223

  position of ions in fractional coordinates (direct lattice)
     0.659051335  0.659051335  0.312607814
     0.340948665  0.340948665  0.687392186
     0.090893632  0.090893632  0.794737926
     0.909106368  0.909106368  0.205262074
     0.497198287  0.497198287  0.255845138
     0.502801713  0.502801713  0.744154862
     0.173731940  0.173731940  0.563438178
     0.826268060  0.826268060  0.436561822
     0.833171938  0.833171938  0.892621350
     0.166828062  0.166828062  0.107378650

  ion indices of the primitive-cell ions
   primitive index   ion index
                 1           1
                 2           6
                 3           7
                 4           4
                 5          15
                 6          10
                 7          17
                 8          12
                 9          13
                10          20

 KPOINTS: Automatic mesh

Automatic generation of k-mesh.
 Grid dimensions read from file:
 generate k-points for:    2    2    2

 Generating k-lattice:

  Cartesian coordinates                     Fractional coordinates (reciprocal lattice)
     0.000000000  0.040715043 -0.009973711     0.500000000  0.000000000 -0.000000000
     0.164065283 -0.000000000  0.000000000     0.000000000  0.500000000  0.000000000
     0.000000000  0.000000000 -0.088490111     0.000000000  0.000000000  0.500000000

  Length of vectors
     0.041918846  0.164065283  0.088490111

  Shift w.r.t. Gamma in fractional coordinates (k-lattice)
     0.000000000  0.000000000  0.000000000

 Subroutine IBZKPT returns following result:

 Found      8 irreducible k-points:

 Following reciprocal coordinates:
            Coordinates               Weight
  0.000000  0.000000  0.000000      1.000000
  0.500000  0.000000  0.000000      1.000000
  0.000000  0.500000  0.000000      1.000000
  0.500000  0.500000  0.000000      1.000000
  0.000000  0.000000  0.500000      1.000000
  0.500000  0.000000  0.500000      1.000000
  0.000000  0.500000  0.500000      1.000000
  0.500000  0.500000  0.500000      1.000000

 Following cartesian coordinates:
            Coordinates               Weight
  0.000000  0.000000 -0.000000      1.000000
  0.000000  0.040715 -0.009974      1.000000
  0.164065  0.000000 -0.000000      1.000000
  0.164065  0.040715 -0.009974      1.000000
  0.000000  0.000000 -0.088490      1.000000
  0.000000  0.040715 -0.098464      1.000000
  0.164065  0.000000 -0.088490      1.000000
  0.164065  0.040715 -0.098464      1.000000

 Subroutine IBZKPT_HF returns following result:

 Found      8 k-points in 1st BZ
 the following      8 k-points will be used (e.g. in the exchange kernel)
 Following reciprocal coordinates:   # in IRBZ
  0.000000  0.000000  0.000000    0.12500000   1 t-inv F
  0.500000  0.000000  0.000000    0.12500000   2 t-inv F
  0.000000  0.500000  0.000000    0.12500000   3 t-inv F
  0.500000  0.500000  0.000000    0.12500000   4 t-inv F
  0.000000  0.000000  0.500000    0.12500000   5 t-inv F
  0.500000  0.000000  0.500000    0.12500000   6 t-inv F
  0.000000  0.500000  0.500000    0.12500000   7 t-inv F
  0.500000  0.500000  0.500000    0.12500000   8 t-inv F

 SYSTEM =  unknown system
 POSCAR =  Ga8 O12

 Startparameter for this run:
   NWRITE =      2    write-flag & timer
   PREC   = normal    normal or accurate (medium, high low for compatibility)
   ISTART =      0    job   : 0-new  1-cont  2-samecut
   ICHARG =      0    charge: 1-file 2-atom 10-const
   ISPIN  =      1    spin polarized calculation?
   LNONCOLLINEAR =      F non collinear calculations
   LSORBIT =      F    spin-orbit coupling
   INIWAV =      1    electr: 0-lowe 1-rand  2-diag
   LASPH  =      F    aspherical Exc in radial PAW
 Electronic Relaxation 1
   ENCUT  =  450.0 eV  33.07 Ry    5.75 a.u.  21.24  5.27 10.06*2*pi/ulx,y,z
   ENINI  =  450.0     initial cutoff
   ENAUG  =  605.4 eV  augmentation charge cutoff
   NELM   =    500;   NELMIN=  2; NELMDL= -5     # of ELM steps
   EDIFF  = 0.1E-04   stopping-criterion for ELM
   LREAL  =      T    real-space projection
   NLSPLINE    = F    spline interpolate recip. space projectors
   LCOMPAT=      F    compatible to vasp.4.4
   GGA_COMPAT  = T    GGA compatible to vasp.4.4-vasp.4.6
   LMAXPAW     = -100 max onsite density
   LMAXMIX     =    2 max onsite mixed and CHGCAR
   VOSKOWN=      0    Vosko Wilk Nusair interpolation
   ROPT   =   -0.00050  -0.00050
 Ionic relaxation
   EDIFFG = -.5E-02   stopping-criterion for IOM
   NSW    =      0    number of steps for IOM
   NBLOCK =      1;   KBLOCK =      1    inner block; outer block
   IBRION =     -1    ionic relax: 0-MD 1-quasi-New 2-CG
   NFREE  =      0    steps in history (QN), initial steepest desc. (CG)
   ISIF   =      2    stress and relaxation
[...]
   1.52378368 11.89194389 -1.44561429
   0.00000000  5.14463535 -4.20473457
   1.52378368  7.49387499 -3.18362227
   0.00000000  9.54270425 -2.46672659
   0.00000000  8.99624105 -5.04362203
   1.52378368  8.04033819 -0.60672683
   0.00000000  5.75170718 -1.44561429
   1.52378368 -0.99560136 -4.20473457
   0.00000000  1.35363828 -3.18362227
   1.52378368  3.40246754 -2.46672659
   1.52378368  2.85600434 -5.04362203
   0.00000000  1.90010148 -0.60672683

 k-point   1 :   0.0000 0.0000 0.0000  plane waves:    4593
 k-point   2 :   0.5000 0.0000 0.0000  plane waves:    4614
 k-point   3 :   0.0000 0.5000 0.0000  plane waves:    4598
 k-point   4 :   0.5000 0.5000 0.0000  plane waves:    4572
 k-point   5 :   0.0000 0.0000 0.5000  plane waves:    4588
 k-point   6 :   0.5000 0.0000 0.5000  plane waves:    4592
 k-point   7 :   0.0000 0.5000 0.5000  plane waves:    4600
 k-point   8 :   0.5000 0.5000 0.5000  plane waves:    4588

 maximum and minimum number of plane-waves per node :      4614     4572

 maximum number of plane-waves:      4614
 maximum index in each direction:
   IXMAX=   21   IYMAX=    5   IZMAX=   10
   IXMIN=  -21   IYMIN=   -5   IZMIN=  -10

 serial   3D FFT for wavefunctions
 parallel 3D FFT for charge:
    minimum data exchange during FFTs selected (reduces bandwidth)

 FFT grid for exact exchange (Hartree Fock)
  NGX = 48; NGY = 12; NGZ = 24

 Radii for the augmentation spheres in the non-local exchange
 for species   1 augmentation radius   1.392 (default was   1.031)
       energy cutoff for augmentation   1800.0
 for species   2 augmentation radius   0.974 (default was   0.722)
       energy cutoff for augmentation   1800.0
 Maximum index for augmentation-charges in exchange           745
  SETUP_FOCK is finished

 Broyden mixing: mesh for mixing (old mesh)
   NGX = 43   NGY = 11   NGZ = 21
  (NGX  =128   NGY  = 32   NGZ  = 60)
  gives a total of   9933 points

 charge density for first step will be calculated from the start-wavefunctions

 Maximum index for non-local projection operator          1709
 Maximum index for augmentation-charges          5357 (set IRDMAX)

 initial charge from wavefunction
 First call to EWALD:  gamma=   0.298
 Maximum number of real-space cells 2x 5x 3
 Maximum number of reciprocal cells 5x 2x 3

--------------------------------------- Ionic step        1  -------------------------------------------

--------------------------------------- Iteration      1(   1)  ---------------------------------------

 eigenvalue-minimisations  :  2288
 total energy-change (2. order) :-0.4829297E+04  (-0.1122198E+05)
 number of electron     175.9999887 magnetization
 augmentation part       20.1458637 magnetization

 Free energy of the ion-electron system (eV)
  alpha Z        PSCENC =       922.92176676
  Ewald energy   TEWEN  =    -14810.94271550
  -Hartree energ DENC   =      -367.07263865
  -exchange      EXHF   =         0.00000000
  -V(xc)+E(xc)   XCENC  =       469.39689457
  PAW double counting   =      9271.72018109   -14136.28191902
  entropy T*S    EENTRO =        -0.00140018
  eigenvalues    EBANDS =     -8495.93199529
  atomic energy  EATOM  =     22316.89519169
  free energy    TOTEN  =     -4829.29663452 eV

  energy without entropy =    -4829.29523434  energy(sigma->0) =    -4829.29593443
  exchange ACFDT corr.  =         0.00000000  see jH, gK, PRB 81, 115126

[...]

 eigenvalue-minimisations  :  2632
 total energy-change (2. order) : 0.4994167E+04  (-0.1020541E+02)
 number of electron     175.9999560 magnetization
 augmentation part       81.1624853 magnetization

[...]

 eigenvalue-minimisations  :     0
 total energy-change (2. order) : 0.1208608E+05  (-0.5791698E+04)
 number of electron     175.9999640 magnetization
 augmentation part       67.5201208 magnetization

[...]

--------------------------------------- Iteration      1(  34)  ---------------------------------------

 eigenvalue-minimisations  :     0
 total energy-change (2. order) :-0.7175175E-05  (-0.3063771E-05)
 number of electron     175.9999715 magnetization
 augmentation part       76.8693953 magnetization

 Free energy of the ion-electron system (eV)
  alpha Z        PSCENC =       922.92176676
  Ewald energy   TEWEN  =    -14810.94271550
  -Hartree energ DENC   =     -5653.68028235
  -exchange      EXHF   =       649.98644439
  -V(xc)+E(xc)   XCENC  =       486.61907975
  PAW double counting   =     20249.04635900   -22844.68181193
  entropy T*S    EENTRO =        -0.00000000
  eigenvalues    EBANDS =     -1474.70540571
  atomic energy  EATOM  =     22316.89519169
  free energy    TOTEN  =      -158.54181016 eV

  energy without entropy =     -158.54181016  energy(sigma->0) =     -158.54181016
  exchange ACFDT corr.  =        -0.00000000  see jH, gK, PRB 81, 115126

  average scaling for gradient   0.5250

 average (electrostatic) potential at core
  the test charge radii are     1.0314  0.7215
  (the norm of the test charge is              1.0000)
       1 -55.5503       2 -55.5501       3 -55.6202       4 -55.6202       5 -55.5501
       6 -55.5503       7 -55.6202       8 -55.6202       9 -62.0521      10 -62.0531
      11 -62.1817      12 -62.1815      13 -61.7027      14 -61.7030      15 -62.0533
      16 -62.0520      17 -62.1817      18 -62.1819      19 -61.7028      20 -61.7030

 E-fermi :   2.5141     XC(G=0):  -8.8425     alpha+bet :-12.5468

 Fermi energy:         2.5141333670

 k-point     1 :       0.0000    0.0000    0.0000
  band No.  band energies     occupation
      1     -18.6021      2.00000
      2     -18.2575      2.00000
      3     -18.0532      2.00000
      4     -17.4382      2.00000
      5     -17.4320      2.00000
      6     -17.4103      2.00000
      7     -17.2862      2.00000
      8     -17.0864      2.00000
      9     -16.8192      2.00000
     10     -16.8180      2.00000
     11     -16.8034      2.00000
     12     -16.8021      2.00000
     13     -13.0485      2.00000
     14     -13.0473      2.00000
     15     -13.0109      2.00000
     16     -13.0041      2.00000
     17     -13.0002      2.00000
     18     -12.9999      2.00000
     19     -12.9558      2.00000
     20     -12.9141      2.00000
     21     -12.8991      2.00000
     22     -12.8938      2.00000
     23     -12.8724      2.00000
     24     -12.8692      2.00000
     25     -12.8256      2.00000
     26     -12.8200      2.00000
     27     -12.8093      2.00000
     28     -12.8061      2.00000
     29     -12.7581      2.00000
     30     -12.7514      2.00000
     31     -12.7389      2.00000
     32     -12.6857      2.00000
     33     -12.6479      2.00000
     34     -12.6469      2.00000
     35     -12.6439      2.00000
     36     -12.6433      2.00000
     37     -12.6407      2.00000
     38     -12.6297      2.00000
     39     -12.6065      2.00000
     40     -12.5710      2.00000
     41     -12.5641      2.00000
     42     -12.5555      2.00000
     43     -12.5210      2.00000
     44     -12.5190      2.00000
     45     -12.5175      2.00000
     46     -12.5080      2.00000
     47     -12.3963      2.00000
     48     -12.3651      2.00000
     49     -12.3124      2.00000
     50     -12.2181      2.00000
     51     -12.1429      2.00000
     52     -11.5395      2.00000
     53      -5.1138      2.00000
     54      -5.1074      2.00000
     55      -4.2937      2.00000
     56      -3.9902      2.00000
     57      -2.8214      2.00000
     58      -2.7875      2.00000
     59      -2.2073      2.00000
     60      -2.1836      2.00000
[...]
     91       9.3542      0.00000
     92      10.3472      0.00000
     93      10.3966      0.00000
     94      11.2674      0.00000
     95      11.3325      0.00000
     96      11.5005      0.00000
     97      12.4522      0.00000
     98      12.6608      0.00000
     99      13.1082      0.00000
    100      13.4803      0.00000
    101      14.1741      0.00000
    102      14.3486      0.00000
    103      14.6137      0.00000
    104      17.0845      0.00000
    105      17.8255      0.00000

[...]

 k-point     8 :       0.5000    0.5000    0.5000
  band No.  band energies     occupation
      1     -17.3906      2.00000
      2     -17.3901      2.00000
      3     -17.3588      2.00000
      4     -17.3585      2.00000
      5     -17.1604      2.00000
      6     -17.1604      2.00000
      7     -17.1525      2.00000
      8     -17.1523      2.00000
      9     -16.8722      2.00000
     10     -16.8721      2.00000
     11     -16.8565      2.00000
     12     -16.8564      2.00000
     13     -12.9163      2.00000
     14     -12.9163      2.00000
     15     -12.9005      2.00000
     16     -12.9004      2.00000
     17     -12.8696      2.00000
     18     -12.8696      2.00000
     19     -12.8689      2.00000
     20     -12.8689      2.00000
     21     -12.8065      2.00000
     22     -12.8065      2.00000
     23     -12.8008      2.00000
     24     -12.8008      2.00000
     25     -12.7570      2.00000
     26     -12.7569      2.00000
     27     -12.7291      2.00000
     28     -12.7291      2.00000
     29     -12.7182      2.00000
     30     -12.7182      2.00000
     31     -12.6902      2.00000
     32     -12.6902      2.00000
     33     -12.5907      2.00000
     34     -12.5907      2.00000
     35     -12.5905      2.00000
     36     -12.5905      2.00000
     37     -12.5420      2.00000
     38     -12.5419      2.00000
     39     -12.5417      2.00000
     40     -12.5416      2.00000
     41     -12.5060      2.00000
     42     -12.5060      2.00000
     43     -12.4978      2.00000
     44     -12.4977      2.00000
     45     -12.1001      2.00000
     46     -12.1000      2.00000
     47     -12.0770      2.00000
     48     -12.0769      2.00000
     49     -11.8646      2.00000
     50     -11.8645      2.00000
     51     -11.8525      2.00000
     52     -11.8524      2.00000
     53      -4.4248      2.00000
     54      -4.4246      2.00000
     55      -4.1598      2.00000
     56      -4.1597      2.00000
     57      -3.8103      2.00000
     58      -3.8100      2.00000
     59      -3.7797      2.00000
     60      -3.7796      2.00000
[...]
     91      11.5939      0.00000
     92      11.5940      0.00000
     93      12.6311      0.00000
     94      12.6353      0.00000
     95      12.7689      0.00000
     96      12.7901      0.00000
     97      13.2391      0.00000
     98      13.2412      0.00000
     99      13.7963      0.00000
    100      13.8496      0.00000
    101      14.1926      0.00000
    102      14.3124      0.00000
    103      14.6445      0.00000
    104      15.7841      0.00000
    105      16.6043      0.00000

 soft charge-density along one line, spin component            1
         0         1         2         3         4         5         6         7         8         9
 total charge-density along one line

------------------------ aborting loop because EDIFF is reached ----------------------------------------

  FORCE on cell =-STRESS in cart. coord.  units (eV):
  Direction    XX          YY          ZZ          XY          YZ          ZX
  Alpha Z   922.92177   922.92177   922.92177
  Ewald   -4228.57873 -5350.08070 -5232.31906    -0.00000  -303.34886     0.00000
  Hartree  2333.73422  1617.91130  1702.03179    -0.00003  -205.37627    -0.00002
  E(xc)    -684.45708  -684.76004  -684.67787    -0.00000    -0.09157    -0.00000
  Local    -938.86914   887.65704   678.76157    -0.00003   502.18513     0.00003
  n-local   993.81607   987.51943   989.13218    -0.00001    -1.77987    -0.00007
  augment   921.47595   922.46490   923.89477     0.00001     1.10886    -0.00000
  Kinetic  2090.68265  2097.84301  2104.17924     0.00006     8.03621    -0.00011
  Fock    -1410.86912 -1410.44824 -1410.21153     0.00001    -0.01346     0.00009
  Total      -0.14342    -8.97153    -6.28714     0.00000     0.72018     0.00000
  in kB      -1.08664   -67.97252   -47.63429     0.00000     5.45645     0.00000

 VOLUME and BASIS-vectors are now :
  energy-cutoff  :      450.00
  volume of cell :      211.47
      direct lattice vectors                 reciprocal lattice vectors
     0.000000000 12.280473417  0.000000000     0.000000000  0.081430085 -0.019947423
     3.047567351  0.000000000  0.000000000     0.328130566 -0.000000000  0.000000000
     0.000000000 -1.384130887 -5.650348859     0.000000000  0.000000000 -0.176980223

  length of vectors
    12.280473417  3.047567351  5.817410123     0.083837691  0.328130566  0.176980223

 FORCES acting on ions:
    Electron-Ion                     Ewald-Force                    Non-Local-Force
   0.486E-04 0.427E+02 -.807E+02   0.340E-14 -.422E+02 0.850E+02   -.339E-20 -.365E+00 -.410E+01
   -.107E-03 -.427E+02 0.807E+02   0.816E-14 0.422E+02 -.850E+02   0.169E-20 0.365E+00 0.410E+01
   0.168E-03 -.437E+02 0.257E+02   0.757E-13 0.430E+02 -.280E+02   0.000E+00 0.574E+00 0.221E+01
   -.124E-03 0.437E+02 -.257E+02   -.247E-13 -.430E+02 0.280E+02   0.000E+00 -.574E+00 -.221E+01
   -.531E-04 0.427E+02 -.807E+02   0.578E-14 -.422E+02 0.850E+02   -.169E-20 -.365E+00 -.410E+01
   -.228E-04 -.427E+02 0.807E+02   0.105E-13 0.422E+02 -.850E+02   0.000E+00 0.365E+00 0.410E+01
   -.426E-05 -.437E+02 0.257E+02   0.794E-13 0.430E+02 -.280E+02   0.212E-21 0.574E+00 0.221E+01
   0.552E-04 0.437E+02 -.257E+02   -.210E-13 -.430E+02 0.280E+02   0.000E+00 -.574E+00 -.221E+01
   -.338E-04 -.134E+02 0.156E+02   0.537E-13 0.207E+02 -.194E+02   0.847E-21 -.632E+01 0.330E+01
   0.377E-04 0.134E+02 -.156E+02   -.666E-13 -.207E+02 0.194E+02   -.847E-21 0.632E+01 -.330E+01
   -.889E-04 0.668E+02 0.354E+02   -.148E-13 -.647E+02 -.305E+02   -.678E-20 -.179E+01 -.419E+01
   0.212E-04 -.668E+02 -.354E+02   0.217E-13 0.647E+02 0.305E+02   0.339E-20 0.179E+01 0.419E+01
   0.789E-04 0.120E+03 0.611E+02   -.103E-13 -.133E+03 -.577E+02   0.847E-21 0.108E+02 -.292E+01
   0.138E-04 -.120E+03 -.611E+02   -.187E-13 0.133E+03 0.577E+02   0.000E+00 -.108E+02 0.292E+01
   0.121E-03 -.134E+02 0.156E+02   0.579E-13 0.207E+02 -.194E+02   -.847E-21 -.632E+01 0.330E+01
   -.161E-03 0.134E+02 -.156E+02   -.655E-13 -.207E+02 0.194E+02   -.847E-21 0.632E+01 -.330E+01
   -.172E-03 0.668E+02 0.354E+02   -.123E-13 -.647E+02 -.305E+02   -.508E-20 -.179E+01 -.419E+01
   0.181E-03 -.668E+02 -.354E+02   0.204E-13 0.647E+02 0.305E+02   0.339E-20 0.179E+01 0.419E+01
   0.403E-05 0.120E+03 0.611E+02   -.938E-14 -.133E+03 -.577E+02   0.169E-20 0.108E+02 -.292E+01
   0.297E-05 -.120E+03 -.611E+02   -.187E-13 0.133E+03 0.577E+02   0.169E-20 -.108E+02 0.292E+01
   -.364E-04 0.164E-03 0.655E-03   0.746E-13 0.256E-12 -.107E-12   -.572E-20 -.178E-14 0.222E-14

 POSITION                                       TOTAL-FORCE (eV/Angst)
      0.00000      7.66077     -1.76634        -0.000000      0.089712      0.016906
      1.52378      9.37581     -3.88401        -0.000000     -0.089712     -0.016906
      1.52378      6.15643     -4.49055         0.000000     -0.034580      0.012673
      0.00000     10.88015     -1.15980        -0.000000      0.034580     -0.012673
      1.52378      1.52054     -1.76634        -0.000000      0.089712      0.016906
      0.00000      3.23557     -3.88401        -0.000000     -0.089712     -0.016906
      0.00000      0.01620     -4.49055        -0.000000     -0.034580      0.012673
      1.52378      4.73991     -1.15980         0.000000      0.034580     -0.012673
      1.52378     11.89194     -1.44561        -0.000000     -0.184372      0.114146
      0.00000      5.14464     -4.20473         0.000000      0.184372     -0.114146
      1.52378      7.49387     -3.18362         0.000000     -0.038567     -0.104840
      0.00000      9.54270     -2.46673         0.000000      0.038567      0.104840
      0.00000      8.99624     -5.04362         0.000000      0.386999     -0.064100
      1.52378      8.04034     -0.60673        -0.000000     -0.386999      0.064100
      0.00000      5.75171     -1.44561        -0.000000     -0.184372      0.114146
      1.52378     -0.99560     -4.20473         0.000000      0.184372     -0.114146
      0.00000      1.35364     -3.18362        -0.000000     -0.038567     -0.104840
      1.52378      3.40247     -2.46673        -0.000000      0.038567      0.104840
      1.52378      2.85600     -5.04362        -0.000000      0.386999     -0.064100
      0.00000      1.90010     -0.60673        -0.000000     -0.386999      0.064100
    total drift:                               -0.000036      0.000164      0.000655

  FREE ENERGIE OF THE ION-ELECTRON SYSTEM (eV)
  free  energy   TOTEN  =      -158.54181016 eV

  energy  without entropy=     -158.54181016  energy(sigma->0) =     -158.54181016

 writing wavefunctions