 vasp.6.4.2 20Jul23 (build Nov 12 2023 22:16:35) complex
 executed on              LinuxNV date 2025.03.16  12:24:39
 OpenACC runtime initialized ...    4 GPUs detected

 INCAR:
   PREC = Normal
   ENCUT = 450
   NELM = 500
   IBRION = -1
   ISPIN = 1
   NSW = 0
   ISIF = 2
   EDIFF = 1E-5
   EDIFFG = -5E-3
   ISTART = 0
   ICHARG = 0
   ISMEAR = 0
   SIGMA = 0.05
   LWAVE = .T.
   LCHARG = .T.
   LREAL = Auto
   LPLANE = .TRUE.
   NPAR = 1
   KPAR = 4
   NCORE = 1
   ALGO = All
   LHFCALC = .TRUE.
   HSE06 = .TRUE.
   HFSCREEN = 0.2
   TIME = 0.4
   AEXX = 0.32
   LMAXFOCK = 4
   PRECFOCK = Fast
   NELECT = 1056

 POTCAR:    PAW_PBE Ga_d 06Jul2010
 POTCAR:     PAW_PBE O 08Apr2002
 POTCAR:    PAW_PBE P 06Sep2000
 POTCAR:    PAW_PBE Ga_d 06Jul2010
   VRHFIN =Ga: s2p1

   TITEL  = PAW_PBE Ga_d 06Jul2010
   POMASS =   69.723; ZVAL   =   13.000    mass and valenz
   ENMAX  =  282.691; ENMIN  =  212.018 eV

   TITEL  = PAW_PBE O 08Apr2002
   POMASS =   16.000; ZVAL   =    6.000    mass and valenz
   ENMAX  =  400.000; ENMIN  =  300.000 eV

   TITEL  = PAW_PBE P 06Sep2000
   POMASS =   30.974; ZVAL   =    5.000    mass and valenz
   ENMAX  =  255.040; ENMIN  =  191.280 eV

 Optimization of the real space projectors (new method)

 maximal supplied QI-value         = 16.25
 optimisation between [QCUT,QGAM] = [ 10.73, 21.61] = [ 32.22,130.83] Ry
 Optimized for a Real-space Cutoff    1.42 Angstroem

   l    n(q)    QCUT    max X(q) W(low)/X(q) W(high)/X(q)  e(spline)
   2      8    10.726     7.143    0.22E-03    0.16E-03    0.73E-07
   2      8    10.726     5.586    0.40E-03    0.26E-03    0.10E-06
   0      9    10.726    12.382    0.25E-04    0.21E-05    0.37E-07
   0      9    10.726     6.622    0.42E-04    0.48E-05    0.77E-07
   1      9    10.726     7.935    0.27E-03    0.13E-04    0.16E-06
   1      9    10.726     2.425    0.23E-03    0.15E-04    0.14E-06
 Optimization of the real space projectors (new method)

[...]

   l    n(q)    QCUT    max X(q) W(low)/X(q) W(high)/X(q)  e(spline)
   0      8    10.645    20.381    0.38E-03    0.60E-03    0.15E-06
   0      8    10.645    15.268    0.40E-03    0.65E-03    0.17E-06
   1      7    10.645     5.964    0.30E-03    0.63E-03    0.18E-06
   1      7    10.645     5.382    0.24E-03    0.53E-03    0.16E-06
 Optimization of the real space projectors (new method)

 maximal supplied QI-value         = 19.84
 optimisation between [QCUT,QGAM] = [ 10.71, 21.63] = [ 32.15,130.99] Ry
 Optimized for a Real-space Cutoff    1.19 Angstroem

   l    n(q)    QCUT    max X(q) W(low)/X(q) W(high)/X(q)  e(spline)
   0      8    10.715   160.924    0.37E-03    0.37E-04    0.63E-07
   0      8    10.715   130.086    0.37E-03    0.36E-04    0.63E-07
   1      7    10.715    74.434    0.19E-03    0.56E-03    0.65E-07
   1      7    10.715    49.120    0.19E-03    0.55E-03    0.63E-07
  PAW_PBE Ga_d 06Jul2010                :
   PAW_PBE O 08Apr2002                  :
  PAW_PBE P 06Sep2000                   :

 POSCAR: Ga48 O72
  positions in direct lattice
  velocities in cartesian coordinates
 exchange correlation table for  LEXCH =        8
   RHO(1)=    0.500       N(1)  =     2000
   RHO(2)=  100.500       N(2)  =     4000

 ion  position               nearest neighbor table
   1  0.666  0.002  0.156-  66 1.91  60 1.95  84 1.98  78 1.98  82 2.02  64 2.02
   2  0.662  0.999  0.664-  83 1.90  79 1.93  85 1.95  67 1.97  61 2.07  65 2.11
   3  0.666  0.332  0.156-  68 1.91  60 1.95  86 1.98  78 1.98  80 2.02  62 2.02
   4  0.662  0.334  0.664-  81 1.90  79 1.93  87 1.95  69 1.97  61 2.07  63 2.11
   5  0.659  0.667  0.148-  80 1.94  82 1.94  62 1.95  64 1.95  88 1.96  70 2.05
   6  0.656  0.667  0.669-  81 1.88  83 1.88  89 1.95  63 2.03  65 2.03  71 2.05
   7  0.842  0.167  0.844-  90 1.93  73 1.97  75 1.97  61 2.02  67 2.06  69 2.06
   8  0.838  0.496  0.338-  74 1.91  68 1.93  91 1.96  76 1.99  70 2.09  62 2.14
   9  0.843  0.499  0.844-  92 1.94  75 1.95  77 1.97  69 2.00  63 2.03  71 2.08
  10  0.838  0.837  0.338-  72 1.91  66 1.93  93 1.96  76 1.99  70 2.09  64 2.14
  11  0.843  0.835  0.844-  94 1.94  73 1.95  77 1.97  67 2.00  65 2.03  71 2.08
  12  0.618  0.167  0.398-  60 1.81  79 1.85  54 1.91  56 1.91
  13  0.587  0.167  0.900-  78 1.83  55 1.87  57 1.87  61 1.87
  14  0.621  0.493  0.405-  81 1.85  62 1.88  56 1.90  58 1.94  74 2.09
  15  0.581  0.499  0.895-  80 1.81  59 1.85  57 1.85  63 1.85
  16  0.621  0.841  0.405-  83 1.85  64 1.88  54 1.90  58 1.94  72 2.09
  17  0.581  0.834  0.895-  82 1.81  59 1.85  55 1.85  65 1.85
  18  0.915  0.001  0.107-  66 1.82  73 1.85  48 1.86  52 1.88
  19  0.888  0.038  0.575-  72 2.00  53 2.04  67 2.10  49 2.11  21 2.35 119 2.89
  20  0.915  0.332  0.107-  68 1.82  75 1.85  48 1.86  50 1.88
  21  0.888  0.295  0.575-  74 2.00  51 2.04  69 2.10  49 2.11  19 2.35 119 2.89
  22  0.915  0.667  0.106-  77 1.85  70 1.86  50 1.86  52 1.86
  23  0.906  0.667  0.596-  76 1.89  51 1.91  53 1.91  71 1.93
  24  0.169  0.167  0.164-  48 1.95 113 1.98 115 1.98 101 2.04  95 2.09  97 2.09
  25  0.163  0.167  0.639-  49 1.78 114 1.95 116 1.95 102 1.96  96 2.33  98 2.33
  26  0.169  0.500  0.164-  50 1.95 115 1.96 117 1.97  99 2.04  97 2.04 103 2.05
  27  0.143  0.496  0.652-  51 1.95 116 1.97 118 1.98  98 2.00 100 2.09 104 2.16
  28  0.169  0.834  0.164-  52 1.95 113 1.96 117 1.97  99 2.04  95 2.04 105 2.05
  29  0.143  0.837  0.652-  53 1.95 114 1.97 118 1.98  96 2.00 100 2.09 106 2.16
  30  0.357  0.999  0.349- 107 1.95 111 1.95  54 1.95 105 2.07 101 2.07  95 2.11
  31  0.332  0.998  0.842-  96 1.93  55 1.93 112 1.96 108 1.97 106 2.07 102 2.08
  32  0.357  0.334  0.349- 107 1.95 109 1.95  56 1.95 103 2.07 101 2.07  97 2.11
  33  0.332  0.336  0.842-  98 1.93  57 1.93 110 1.96 108 1.97 104 2.07 102 2.08
  34  0.366  0.667  0.348-  58 1.94 109 1.95 111 1.95 103 2.07 105 2.07  99 2.21
  35  0.330  0.667  0.838-  59 1.95 110 1.96 112 1.96 104 2.01 106 2.01 100 2.03
  36  0.086  0.005  0.396- 114 1.90  93 1.90  95 1.93 119 2.19
  37  0.094  0.002  0.900-  90 1.85  96 1.86  94 1.87 113 1.88
  38  0.086  0.329  0.396- 116 1.90  91 1.90  97 1.93 119 2.19
  39  0.094  0.331  0.900-  90 1.85  98 1.86  92 1.87 115 1.88
  40  0.095  0.667  0.396-  91 1.84  93 1.84 118 1.85  99 1.88
  41  0.093  0.667  0.903- 117 1.86  92 1.86  94 1.86 100 1.88
  42  0.410  0.167  0.098-  84 1.86  86 1.86 108 1.87 101 1.89
  43  0.412  0.167  0.607- 107 1.85  85 1.86  87 1.86 102 1.91
  44  0.411  0.498  0.099-  88 1.84 110 1.85  86 1.85 103 1.87
  45  0.407  0.498  0.607- 109 1.84  89 1.86  87 1.86 104 1.86
  46  0.411  0.836  0.099-  88 1.84 112 1.85  84 1.85 105 1.87
  47  0.407  0.835  0.607- 111 1.84  89 1.86  85 1.86 106 1.86
  48  0.006  0.167  0.126-  18 1.86  20 1.86  24 1.95
  49  0.025  0.167  0.664-  25 1.78  19 2.11  21 2.11
  50  0.005  0.500  0.127-  22 1.86  20 1.88  26 1.95
  51  0.980  0.482  0.609-  23 1.91  27 1.95  21 2.04
  52  0.005  0.833  0.127-  22 1.86  18 1.88  28 1.95
  53  0.980  0.851  0.609-  23 1.91  29 1.95  19 2.04
  54  0.520  0.001  0.377-  16 1.90  12 1.91  30 1.95
  55  0.494  0.002  0.872-  17 1.85  13 1.87  31 1.93
  56  0.520  0.333  0.377-  14 1.90  12 1.91  32 1.95
  57  0.494  0.331  0.872-  15 1.85  13 1.87  33 1.93
  58  0.528  0.667  0.381-  34 1.94  14 1.94  16 1.94
  59  0.494  0.667  0.872-  15 1.85  17 1.85  35 1.95
  60  0.664  0.167  0.261-  12 1.81   1 1.95   3 1.95
[...]
 105  0.340  0.833  0.225-  46 1.87  28 2.05  34 2.07  30 2.07
 106  0.322  0.831  0.720-  47 1.86  35 2.01  31 2.07  29 2.16
 107  0.343  0.167  0.448-  43 1.85  30 1.95  32 1.95
 108  0.321  0.167  0.943-  42 1.87  31 1.97  33 1.97
 109  0.345  0.502  0.447-  45 1.84  34 1.95  32 1.95
 110  0.325  0.503  0.945-  44 1.85  33 1.96  35 1.96
 111  0.345  0.831  0.447-  47 1.84  34 1.95  30 1.95
 112  0.325  0.830  0.945-  46 1.85  31 1.96  35 1.96
 113  0.176  0.999  0.059-  37 1.88  28 1.96  24 1.98
 114  0.181  0.992  0.550-  36 1.90  25 1.95  29 1.97
 115  0.176  0.335  0.059-  39 1.88  26 1.96  24 1.98
 116  0.181  0.342  0.550-  38 1.90  25 1.95  27 1.97
 117  0.176  0.667  0.059-  41 1.86  26 1.97  28 1.97
 118  0.165  0.667  0.555-  40 1.85  27 1.98  29 1.98
 119  0.951  0.167  0.374-  36 2.19  38 2.19  19 2.89  21 2.89

  LATTYP: Found a simple monoclinic cell.
 ALAT       =    11.6348202465
 B/A-ratio  =     0.7858051831
 C/A-ratio  =     1.0554931797
 COS(beta)  =    -0.2379290539

  Lattice vectors:

 A1 = (   0.0000000000,  -2.7682617730, -11.3006977184)
 A2 = (  -9.1427020537,   0.0000000000,   0.0000000000)
 A3 = (   0.0000000000,  12.2804734172,   0.0000000000)

Analysis of symmetry for initial positions (statically):
 Subroutine PRICEL returns:
 Original cell was already a primitive cell.

 Routine SETGRP: Setting up the symmetry group for a
 simple monoclinic supercell.

 Subroutine GETGRP returns: Found  2 space group operations
 (whereof  1 operations were pure point group operations)
 out of a pool of  4 trial point group operations.

The static configuration has the point symmetry C_1 .
 The point group associated with its full space group is C_1h.

Analysis of symmetry for dynamics (positions and initial velocities):
 Subroutine PRICEL returns:
 Original cell was already a primitive cell.

 Routine SETGRP: Setting up the symmetry group for a
 simple monoclinic supercell.

 Subroutine GETGRP returns: Found  2 space group operations
 (whereof  1 operations were pure point group operations)
 out of a pool of  4 trial point group operations.

The dynamic configuration has the point symmetry C_1 .
 The point group associated with its full space group is C_1h.

 Subroutine INISYM returns: Found  2 space group operations
 (whereof  1 operations are pure point group operations),
 and found     1 'primitive' translations

                                     Primitive cell

  volume of cell :    1268.8052

  direct lattice vectors                    reciprocal lattice vectors
     0.000000000 12.280473417  0.000000000     0.000000000  0.081430085 -0.019947423
     9.142702054  0.000000000  0.000000000     0.109376855 -0.000000000  0.000000000
     0.000000000 -2.768261773-11.300697718     0.000000000  0.000000000 -0.088490111

  length of vectors
    12.280473417  9.142702054 11.634820246     0.083837691  0.109376855  0.088490111

  position of ions in fractional coordinates (direct lattice)
     0.665718340  0.001541769  0.155558555
     0.662065882  0.999276187  0.663870971
     0.665718340  0.331791564  0.155558555
     0.662065882  0.334057147  0.663870971
     0.658683485  0.666666667  0.147960885
     0.655993099  0.666666667  0.668557761
     0.841575130  0.166666667  0.843682063
     0.837706369  0.496094089  0.338486704
     0.842609691  0.498513804  0.844484665
     0.837706369  0.837239244  0.338486704
     0.842609691  0.834819530  0.844484665
     0.618262517  0.166666667  0.398056105
     0.587481959  0.166666667  0.899791238
     0.621037605  0.492821659  0.405421238
     0.581007898  0.499187761  0.895294868
     0.621037605  0.840511675  0.405421238
     0.581007898  0.834145573  0.895294868
     0.914875915  0.001257728  0.106897668
     0.887961101  0.038156064  0.575062668
[...]
     52     -16.9561      2.00000
     53     -16.9447      2.00000
     54     -16.9341      2.00000
     55     -16.9289      2.00000
     56     -16.9123      2.00000
     57     -16.9081      2.00000
     58     -16.8787      2.00000
     59     -16.8740      2.00000
     60     -16.8550      2.00000
[...]
    619      15.3124      0.00000
    620      15.3931      0.00000
    621      15.4261      0.00000
    622      15.4413      0.00000
    623      15.5753      0.00000
    624      15.5762      0.00000
    625      15.6325      0.00000
    626      15.6397      0.00000
    627      15.7639      0.00000
    628      15.8855      0.00000
    629      16.1625      0.00000
    630      16.2805      0.00000
    631      16.2936      0.00000
    632      16.4432      0.00000
    633      16.6972      0.00000

 soft charge-density along one line, spin component            1
         0         1         2         3         4         5         6         7         8         9
 total charge-density along one line

------------------------ aborting loop because EDIFF is reached ----------------------------------------

  FORCE on cell =-STRESS in cart. coord.  units (eV):
  Direction    XX          YY          ZZ          XY          YZ          ZX
  Alpha Z  5376.25787  5376.25787  5376.25787
  Ewald  -24971.72227-31335.00681-30335.98570    -0.00000 -1155.31449     0.00000
  Hartree 13798.34539  9705.32828 10435.91086     0.00002  -804.89214     0.00018
  E(xc)   -4077.02251 -4079.30580 -4079.04130    -0.00000    -0.31320     0.00000
  Local   -5526.33188  4805.49973  3045.23422     0.00007  1937.47777    -0.00008
  n-local  5986.59916  5939.92492  5951.98359    -0.00008    -0.32121     0.00003
  augment  5384.00674  5401.79046  5407.34692    -0.00003     2.90438    -0.00001
  Kinetic 12491.07850 12656.16059 12695.88352     0.00021    27.55551    -0.00022
  Fock    -8296.77896 -8301.57045 -8301.00033    -0.00006     0.07415    -0.00001
  Total     164.43203   169.07879   196.58966     0.00000     7.17077     0.00000
  in kB     207.63572   213.50339   248.24260     0.00000     9.05486     0.00000

 VOLUME and BASIS-vectors are now :
  energy-cutoff  :      450.00
  volume of cell :     1268.81
      direct lattice vectors                 reciprocal lattice vectors
     0.000000000 12.280473417  0.000000000     0.000000000  0.081430085 -0.019947423
     9.142702054  0.000000000  0.000000000     0.109376855 -0.000000000  0.000000000
     0.000000000 -2.768261773-11.300697718     0.000000000  0.000000000 -0.088490111

  length of vectors
    12.280473417  9.142702054 11.634820246     0.083837691  0.109376855  0.088490111

 FORCES acting on ions:
    Electron-Ion                     Ewald-Force                    Non-Local-Force
   -.123E+03 -.846E+02 0.153E+02   0.125E+03 0.875E+02 -.168E+02   -.180E+01 -.263E+01 0.128E+01
   -.146E+02 -.376E+01 -.858E+02   0.138E+02 0.491E+01 0.904E+02   0.724E+00 -.107E+01 -.424E+01
   0.123E+03 -.846E+02 0.153E+02   -.125E+03 0.875E+02 -.168E+02   0.180E+01 -.263E+01 0.128E+01
   0.146E+02 -.376E+01 -.858E+02   -.138E+02 0.491E+01 0.904E+02   -.724E+00 -.107E+01 -.424E+01
   -.429E-04 -.289E+02 -.879E+02   0.223E-10 0.273E+02 0.877E+02   0.000E+00 0.145E+01 0.532E-01
   -.712E-05 -.153E+02 -.731E+02   0.354E-10 0.156E+02 0.799E+02   0.000E+00 -.242E+00 -.628E+01
   -.254E-03 -.108E+03 0.813E+02   0.372E-10 0.109E+03 -.842E+02   0.000E+00 -.121E+01 0.272E+01
   0.201E+03 -.246E+03 0.147E+03   -.205E+03 0.244E+03 -.150E+03   0.351E+01 0.228E+01 0.283E+01
   -.948E+01 -.116E+03 0.727E+02   0.726E+01 0.117E+03 -.746E+02   0.206E+01 -.882E+00 0.194E+01
   -.201E+03 -.246E+03 0.147E+03   0.205E+03 0.244E+03 -.150E+03   -.351E+01 0.228E+01 0.283E+01
   0.948E+01 -.116E+03 0.727E+02   -.726E+01 0.117E+03 -.746E+02   -.206E+01 -.882E+00 0.194E+01
   0.597E-04 -.164E+03 -.825E+01   0.393E-10 0.161E+03 0.115E+02   0.000E+00 0.257E+01 -.300E+01
   0.225E-03 -.592E+02 0.598E+02   0.112E-10 0.602E+02 -.624E+02   0.000E+00 -.877E+00 0.240E+01
   -.220E+02 0.344E+02 0.225E+02   0.203E+02 -.361E+02 -.233E+02   0.136E+01 0.174E+01 0.674E+00
   0.280E+02 -.581E+02 0.262E+02   -.281E+02 0.595E+02 -.299E+02   0.693E-01 -.123E+01 0.330E+01
   0.220E+02 0.344E+02 0.225E+02   -.203E+02 -.361E+02 -.233E+02   -.136E+01 0.174E+01 0.674E+00
   -.280E+02 -.581E+02 0.262E+02   0.281E+02 0.595E+02 -.299E+02   -.693E-01 -.123E+01 0.330E+01
   -.119E+03 0.203E+02 0.144E+03   0.118E+03 -.234E+02 -.143E+03   0.979E+00 0.280E+01 -.808E+00
   0.808E+01 -.140E+03 -.192E+03   0.126E+02 0.134E+03 0.195E+03   -.196E+02 0.640E+01 -.326E+01
   0.119E+03 0.203E+02 0.144E+03   -.118E+03 -.234E+02 -.143E+03   -.979E+00 0.280E+01 -.808E+00
   -.808E+01 -.140E+03 -.192E+03   -.126E+02 0.134E+03 0.195E+03   0.196E+02 0.640E+01 -.326E+01
   0.106E-03 -.755E+01 0.175E+02   0.271E-10 0.724E+01 -.162E+02   0.000E+00 0.297E+00 -.123E+01
   -.488E-04 -.510E+02 0.119E+02   0.325E-10 0.547E+02 -.117E+02   0.000E+00 -.345E+01 -.173E+00
   0.983E-04 0.132E+03 0.241E+02   0.262E-10 -.132E+03 -.202E+02   0.000E+00 0.606E+00 -.361E+01
   0.120E-03 0.967E+02 -.231E+03   0.195E-10 -.110E+03 0.232E+03   0.000E+00 0.118E+02 -.115E+01
   0.213E+02 0.909E+02 -.134E+02   -.216E+02 -.912E+02 0.166E+02   0.359E+00 0.460E+00 -.297E+01
   0.709E+01 0.149E+03 -.168E+03   -.827E+01 -.152E+03 0.172E+03   0.111E+01 0.321E+01 -.344E+01
   -.213E+02 0.909E+02 -.134E+02   0.216E+02 -.912E+02 0.166E+02   -.359E+00 0.460E+00 -.297E+01
   -.709E+01 0.149E+03 -.168E+03   0.827E+01 -.152E+03 0.172E+03   -.111E+01 0.321E+01 -.344E+01
   -.133E+02 0.185E+02 0.776E+02   0.137E+02 -.175E+02 -.818E+02   -.392E+00 -.101E+01 0.404E+01
   -.369E+02 -.108E+02 0.539E+02   0.362E+02 0.822E+01 -.566E+02   0.588E+00 0.221E+01 0.262E+01
   0.133E+02 0.185E+02 0.776E+02   -.137E+02 -.175E+02 -.818E+02   0.392E+00 -.101E+01 0.404E+01
   0.369E+02 -.108E+02 0.539E+02   -.362E+02 0.822E+01 -.566E+02   -.588E+00 0.221E+01 0.262E+01
   0.521E-04 0.642E+01 0.679E+02   0.410E-10 -.425E+01 -.720E+02   0.000E+00 -.218E+01 0.389E+01
   -.106E-03 0.288E+02 0.448E+02   0.204E-10 -.285E+02 -.469E+02   0.000E+00 -.322E+00 0.210E+01
   -.192E+03 0.158E+03 -.362E+02   0.202E+03 -.169E+03 0.363E+02   -.980E+01 0.102E+02 -.263E+00
   -.164E+02 0.231E+02 -.342E+01   0.166E+02 -.230E+02 0.286E+01   -.220E+00 -.121E+00 0.622E+00
   0.192E+03 0.158E+03 -.362E+02   -.202E+03 -.169E+03 0.363E+02   0.980E+01 0.102E+02 -.263E+00
   0.164E+02 0.231E+02 -.342E+01   -.166E+02 -.230E+02 0.286E+01   0.220E+00 -.121E+00 0.622E+00
   -.260E-04 -.551E+02 0.370E+02   0.238E-10 0.527E+02 -.387E+02   0.000E+00 0.202E+01 0.147E+01
   -.193E-03 0.195E+02 0.123E+02   0.318E-10 -.197E+02 -.123E+02   0.000E+00 0.171E+00 0.159E+00
   0.539E-05 0.605E+02 0.477E+02   0.322E-10 -.600E+02 -.461E+02   0.000E+00 -.266E+00 -.141E+01
   0.102E-03 0.849E+02 -.110E+03   0.331E-10 -.845E+02 0.112E+03   0.000E+00 -.296E+00 -.220E+01
   0.242E+02 0.789E+02 0.486E+02   -.242E+02 -.783E+02 -.471E+02   0.482E-01 -.493E+00 -.140E+01
   0.121E+02 0.106E+03 -.133E+03   -.119E+02 -.106E+03 0.134E+03   -.147E+00 -.293E+00 -.109E+01
   -.242E+02 0.789E+02 0.486E+02   0.242E+02 -.783E+02 -.471E+02   -.482E-01 -.493E+00 -.140E+01
   -.121E+02 0.106E+03 -.133E+03   0.119E+02 -.106E+03 0.134E+03   0.147E+00 -.293E+00 -.109E+01
   -.207E-05 0.223E+02 0.870E+02   0.963E-11 -.152E+02 -.879E+02   0.000E+00 -.615E+01 0.887E+00
   0.131E-03 0.982E+02 0.257E+02   0.108E-10 -.112E+03 -.362E+02   0.000E+00 0.123E+02 0.883E+01
   0.238E+02 -.161E+02 0.326E+02   -.244E+02 0.230E+02 -.340E+02   0.536E+00 -.600E+01 0.125E+01
   0.663E+02 0.233E+02 -.227E+02   -.705E+02 -.246E+02 0.228E+02   0.334E+01 0.117E+01 -.916E-01
   -.238E+02 -.161E+02 0.326E+02   0.244E+02 0.230E+02 -.340E+02   -.536E+00 -.600E+01 0.125E+01
   -.663E+02 0.233E+02 -.227E+02   0.705E+02 -.246E+02 0.228E+02   -.334E+01 0.117E+01 -.916E-01
   -.143E+02 0.467E+02 -.262E+02   0.150E+02 -.520E+02 0.287E+02   -.598E+00 0.464E+01 -.216E+01
   -.216E+02 0.926E+01 -.977E+01   0.234E+02 -.146E+02 0.128E+02   -.161E+01 0.453E+01 -.262E+01
   0.143E+02 0.467E+02 -.262E+02   -.150E+02 -.520E+02 0.287E+02   0.598E+00 0.464E+01 -.216E+01
   0.216E+02 0.926E+01 -.977E+01   -.234E+02 -.146E+02 0.128E+02   0.161E+01 0.453E+01 -.262E+01
   -.288E-04 0.343E+02 -.122E+02   0.275E-10 -.362E+02 0.138E+02   0.000E+00 0.165E+01 -.142E+01
   -.110E-04 0.157E+02 -.798E+01   0.914E-12 -.225E+02 0.105E+02   0.000E+00 0.589E+01 -.220E+01
   0.103E-03 -.134E+03 0.945E+02   0.136E-10 0.142E+03 -.930E+02   0.000E+00 -.686E+01 -.137E+01
[...]
   -.329E+01 -.116E+02 -.928E+02   0.432E+01 0.650E+01 0.914E+02   -.896E+00 0.440E+01 0.123E+01
   0.684E-04 0.152E+03 0.304E+02   0.300E-10 -.163E+03 -.278E+02   0.000E+00 0.941E+01 -.215E+01
   0.414E-04 0.143E+03 0.670E+02   0.747E-11 -.155E+03 -.660E+02   0.000E+00 0.104E+02 -.804E+00
   -.503E+01 0.150E+03 0.325E+02   0.563E+01 -.161E+03 -.282E+02   -.505E+00 0.968E+01 -.366E+01
   -.375E+01 0.143E+03 0.738E+02   0.413E+01 -.155E+03 -.722E+02   -.314E+00 0.104E+02 -.133E+01
   0.503E+01 0.150E+03 0.325E+02   -.563E+01 -.161E+03 -.282E+02   0.505E+00 0.968E+01 -.366E+01
   0.375E+01 0.143E+03 0.738E+02   -.413E+01 -.155E+03 -.722E+02   0.314E+00 0.104E+02 -.133E+01
   -.540E+01 -.805E+02 -.458E+02   0.594E+01 0.912E+02 0.448E+02   -.479E+00 -.926E+01 0.900E+00
   0.716E+01 -.975E+02 -.123E+03   -.107E+02 0.113E+03 0.122E+03   0.305E+01 -.135E+02 0.258E+00
   0.540E+01 -.805E+02 -.458E+02   -.594E+01 0.912E+02 0.448E+02   0.479E+00 -.926E+01 0.900E+00
   -.716E+01 -.975E+02 -.123E+03   0.107E+02 0.113E+03 0.122E+03   -.305E+01 -.135E+02 0.258E+00
   -.169E-03 -.909E+02 -.468E+02   0.625E-11 0.102E+03 0.442E+02   0.000E+00 -.994E+01 0.229E+01
   0.179E-04 -.109E+03 -.775E+02   0.909E-12 0.120E+03 0.726E+02   0.000E+00 -.926E+01 0.416E+01
   0.894E-04 0.118E+03 -.396E+02   0.820E-11 -.120E+03 0.420E+02   0.000E+00 0.190E+01 -.229E+01
   -.236E-02 -.462E+02 0.291E+01   -.105E-11 -.163E-11 0.355E-12   0.444E-15 0.445E+02 -.339E+01

 POSITION                                       TOTAL-FORCE (eV/Angst)
      0.01410      7.74471     -1.75792         0.020118      0.097706     -0.070577
      9.13608      6.29271     -7.50221        -0.003526      0.035617      0.051500
      3.03347      7.74471     -1.75792        -0.020118      0.097706     -0.070577
      3.05418      6.29271     -7.50221         0.003526      0.035617      0.051500
      6.09513      7.67935     -1.67206         0.000000     -0.050159     -0.112395
      6.09513      6.20516     -7.55517         0.000000      0.061794      0.107597
      1.52378      7.99941     -9.53420         0.000000     -0.026715      0.017118
      4.53564      9.35041     -3.82514        -0.033147     -0.137645     -0.006171
      4.55776      8.00989     -9.54327        -0.047489     -0.017470      0.087127
      7.65463      9.35041     -3.82514         0.033147     -0.137645     -0.006171
      7.63251      8.00989     -9.54327         0.047489     -0.017470      0.087127
      1.52378      6.49063     -4.49831         0.000000     -0.131887      0.045009
      1.52378      4.72370    -10.16827         0.000000      0.019496      0.000061
      4.50572      6.50432     -4.58154        -0.121578      0.046160     -0.001485
      4.56392      4.65664    -10.11746        -0.016157      0.059533     -0.056108
      7.68455      6.50432     -4.58154         0.121578      0.046160     -0.001485
      7.62634      4.65664    -10.11746         0.016157      0.059533     -0.056108
      0.01150     10.93919     -1.20802        -0.073262     -0.066504      0.017405
      0.34885      9.31266     -6.49861        -0.051131     -0.015615     -0.103392
      3.03607     10.93919     -1.20802         0.073262     -0.066504      0.017405
      2.69872      9.31266     -6.49861         0.051131     -0.015615     -0.103392
      6.09513     10.93918     -1.20090         0.000000     -0.002049      0.005982
      6.09513      9.47763     -6.74009         0.000000      0.051861      0.017681
      1.52378      1.62102     -1.85457         0.000000      0.090920      0.058388
      1.52378      0.23003     -7.22265         0.000000     -0.150699     -0.052953
      4.56919      1.61605     -1.85584         0.001187      0.087611     -0.006108
      4.53890     -0.04700     -7.36541         0.001394     -0.003173      0.025665
      7.62108      1.61605     -1.85584        -0.001187      0.087611     -0.006108
      7.65137     -0.04700     -7.36541        -0.001394     -0.003173      0.025665
      9.13747      3.42327     -3.93965         0.002866     -0.057357     -0.022974
      9.12066      1.74882     -9.51646        -0.019893     -0.128531     -0.006579
      3.05280      3.42327     -3.93965        -0.002866     -0.057357     -0.022974
      3.06961      1.74882     -9.51646         0.019893     -0.128531     -0.006579
      6.09513      3.53123     -3.93452         0.000000     -0.057848     -0.051318
      6.09513      1.73830     -9.46613         0.000000     -0.061561      0.017064
      0.04156     -0.04410     -4.47086        -0.325297      0.144268     -0.100660
      0.02180     -1.33749    -10.17015        -0.038710     -0.035320      0.074371
      3.00600     -0.04410     -4.47086         0.325297      0.144268     -0.100660
      3.02577     -1.33749    -10.17015         0.038710     -0.035320      0.074371
      6.09513      0.07099     -4.47364         0.000000     -0.093027     -0.102212
      6.09513     -1.35798    -10.20393         0.000000     -0.022102      0.154253
      1.52378      4.76440     -1.11019         0.000000      0.050953      0.030396
      1.52378      3.37562     -6.86304         0.000000      0.053838     -0.009888
      4.54961      4.76822     -1.11642         0.025279      0.037724      0.018975
      4.55313      3.31891     -6.86140         0.017903      0.020179     -0.021848
      7.64066      4.76822     -1.11642        -0.025279      0.037724      0.018975
      7.63714      3.31891     -6.86140        -0.017903      0.020179     -0.021848
      1.52378     -0.27792     -1.42345         0.000000     -0.269648      0.068844
      1.52378     -1.52671     -7.49963         0.000000      0.570131      0.230647
      4.57325     -0.29107     -1.43869         0.034925     -0.250527      0.061786
      4.40587     10.35232     -6.88480        -0.133112      0.031326      0.071435
      7.61702     -0.29107     -1.43869        -0.034925     -0.250527      0.061786
      7.78440     10.35232     -6.88480         0.133112      0.031326      0.071435
      0.00732      5.34593     -4.26034        -0.007605      0.221767     -0.087188
      0.02033      3.65277     -9.85622        -0.092642      0.163357     -0.095671
      3.04025      5.34593     -4.26034         0.007605      0.221767     -0.087188
      3.02723      3.65277     -9.85622         0.092642      0.163357     -0.095671
      6.09513      5.43226     -4.30266         0.000000      0.106339     -0.065416
      6.09513      3.64602     -9.85618         0.000000      0.226406     -0.086104
      1.52378      7.43072     -2.94587         0.000000     -0.248155     -0.110326
[...]
      7.61992      3.55135     -2.54032        -0.003342      0.015700      0.041605
      7.59333      1.96492     -8.14109        -0.032604      0.139281      0.026385
      1.52378      2.97895     -5.05746         0.000000      0.378343     -0.016551
      1.52378      1.33653    -10.66073         0.000000      0.373933      0.025006
      4.59303      2.99510     -5.05376        -0.021250      0.406404     -0.079929
      4.59953      1.37624    -10.67720        -0.004673      0.394770      0.007716
      7.59724      2.99510     -5.05376         0.021250      0.406404     -0.079929
      7.59074      1.37624    -10.67720         0.004673      0.394770      0.007716
      9.13054      1.99468     -0.66514        -0.017830     -0.396417      0.040067
      9.06545      0.69729     -6.21624         0.169545     -0.523969     -0.019523
      3.05973      1.99468     -0.66514         0.017830     -0.396417      0.040067
      3.12482      0.69729     -6.21624        -0.169545     -0.523969     -0.019523
      6.09513      2.00056     -0.66478         0.000000     -0.424454      0.083681
      6.09513      0.49245     -6.27244         0.000000     -0.321013      0.133610
      1.52378     10.64625     -4.22511         0.000000      0.561944     -0.106388
    total drift:                               -0.002356      0.001151      0.133813

  FREE ENERGIE OF THE ION-ELECTRON SYSTEM (eV)
  free  energy   TOTEN  =      -837.06848873 eV

  energy  without entropy=     -837.06059727  energy(sigma->0) =     -837.06454300

 writing wavefunctions