 vasp.6.4.2 20Jul23 (build Nov 12 2023 22:16:35) complex
 executed on              LinuxNV date 2025.03.14  23:28:26
 OpenACC runtime initialized ...    4 GPUs detected

 INCAR:
   PREC = Normal
   ENCUT = 450
   NELM = 500
   IBRION = -1
   ISPIN = 1
   NSW = 0
   ISIF = 2
   EDIFF = 1E-5
   EDIFFG = -5E-3
   ISTART = 0
   ICHARG = 0
   ISMEAR = 0
   SIGMA = 0.05
   LWAVE = .T.
   LCHARG = .T.
   LREAL = Auto
   LPLANE = .TRUE.
   NPAR = 1
   KPAR = 4
   NCORE = 1
   ALGO = All
   LHFCALC = .TRUE.
   HSE06 = .TRUE.
   HFSCREEN = 0.2
   TIME = 0.4
   AEXX = 0.32
   LMAXFOCK = 4
   PRECFOCK = Fast

 POTCAR:    PAW_PBE Ga_d 06Jul2010
 POTCAR:    PAW_PBE O 08Apr2002
 POTCAR:    PAW_PBE Ga_d 06Jul2010
   VRHFIN =Ga: s2p1

   TITEL  = PAW_PBE Ga_d 06Jul2010
   POMASS =   69.723; ZVAL   =   13.000    mass and valenz
   ENMAX  =  282.691; ENMIN  =  212.018 eV

   TITEL  = PAW_PBE O 08Apr2002
   POMASS =   16.000; ZVAL   =    6.000    mass and valenz
   ENMAX  =  400.000; ENMIN  =  300.000 eV

 Optimization of the real space projectors (new method)

 maximal supplied QI-value         = 16.25
 optimisation between [QCUT,QGAM] = [ 10.73, 21.61] = [ 32.22,130.83] Ry
 Optimized for a Real-space Cutoff    1.42 Angstroem

   l    n(q)    QCUT    max X(q) W(low)/X(q) W(high)/X(q)  e(spline)
   2      8    10.726     7.143    0.22E-03    0.16E-03    0.73E-07
   2      8    10.726     5.586    0.40E-03    0.26E-03    0.10E-06
   0      9    10.726    12.382    0.25E-04    0.21E-05    0.37E-07
   0      9    10.726     6.622    0.42E-04    0.48E-05    0.77E-07
   1      9    10.726     7.935    0.27E-03    0.13E-04    0.16E-06
   1      9    10.726     2.425    0.23E-03    0.15E-04    0.14E-06
 Optimization of the real space projectors (new method)

 maximal supplied QI-value         = 24.76
 optimisation between [QCUT,QGAM] = [ 10.64, 21.54] = [ 31.73,129.89] Ry
 Optimized for a Real-space Cutoff    1.23 Angstroem

   l    n(q)    QCUT    max X(q) W(low)/X(q) W(high)/X(q)  e(spline)
   0      8    10.645    20.381    0.38E-03    0.60E-03    0.15E-06
   0      8    10.645    15.268    0.40E-03    0.65E-03    0.17E-06
   1      7    10.645     5.964    0.30E-03    0.63E-03    0.18E-06
   1      7    10.645     5.382    0.24E-03    0.53E-03    0.16E-06
  PAW_PBE Ga_d 06Jul2010                :
  PAW_PBE O 08Apr2002                   :

 POSCAR: Ga47 O72
  positions in direct lattice
  velocities in cartesian coordinates
 exchange correlation table for  LEXCH =        8
   RHO(1)=    0.500       N(1)  =     2000
   RHO(2)=  100.500       N(2)  =     4000

 ion  position               nearest neighbor table
   1  0.661  0.000  0.158-  84 1.93  82 1.96  78 1.96  66 2.02  60 2.07  64 2.08
   2  0.658  0.000  0.655-  85 1.94  79 1.95  83 1.95  67 2.03  65 2.08  61 2.08
   3  0.662  0.333  0.158-  80 1.95  78 1.95  86 1.96  68 2.02  62 2.07  60 2.07
   4  0.658  0.333  0.655-  81 1.95  79 1.95  87 1.96  69 2.03  63 2.07  61 2.07
   5  0.661  0.667  0.158-  88 1.93  82 1.96  80 1.96  70 2.02  62 2.07  64 2.08
   6  0.658  0.666  0.655-  89 1.94  81 1.95  83 1.95  71 2.03  65 2.08  63 2.08
   7  0.843  0.167  0.344-  90 1.94  74 1.95  72 1.95  60 2.03  68 2.08  66 2.08
   8  0.840  0.167  0.843-  91 1.94  75 1.95  73 1.96  61 2.02  69 2.07  67 2.08
   9  0.843  0.500  0.344-  92 1.94  74 1.95  76 1.95  62 2.03  68 2.08  70 2.08
  10  0.840  0.499  0.843-  93 1.94  75 1.95  77 1.96  63 2.02  69 2.07  71 2.08
  11  0.842  0.833  0.344-  94 1.94  72 1.95  76 1.95  64 2.02  66 2.08  70 2.08
  12  0.840  0.833  0.842-  95 1.94  73 1.96  77 1.96  65 2.01  67 2.08  71 2.08
  13  0.589  0.170  0.396-  56 1.83  54 1.85  79 1.85  60 1.89
  14  0.592  0.166  0.898-  78 1.84  55 1.85  57 1.85  61 1.87
  15  0.589  0.496  0.396-  56 1.83  58 1.85  81 1.85  62 1.89
  16  0.592  0.500  0.898-  80 1.84  59 1.85  57 1.85  63 1.87
  17  0.590  0.833  0.397-  83 1.84  54 1.85  58 1.85  64 1.88
  18  0.593  0.833  0.899-  82 1.84  55 1.85  59 1.85  65 1.87
  19  0.909  0.000  0.102-  52 1.84  48 1.84  73 1.85  66 1.87
  20  0.910  0.000  0.603-  72 1.84  49 1.85  53 1.85  67 1.87
  21  0.911  0.333  0.103-  50 1.84  48 1.84  75 1.85  68 1.88
  22  0.910  0.333  0.603-  74 1.84  51 1.85  49 1.85  69 1.87
  23  0.909  0.666  0.102-  52 1.84  50 1.84  77 1.85  70 1.87
  24  0.910  0.667  0.603-  76 1.84  51 1.85  53 1.85  71 1.87
  25  0.163  0.170  0.161- 102 1.94  98 1.96 116 1.97  48 1.98 114 2.00  96 2.08
  26  0.160  0.167  0.658- 117 1.95  49 1.95 115 1.96 103 2.02  99 2.07  97 2.08
  27  0.163  0.497  0.161- 104 1.94  98 1.96 116 1.97  50 1.98 118 2.00 100 2.08
  28  0.160  0.500  0.658- 117 1.95  51 1.95 119 1.96 105 2.02  99 2.07 101 2.08
  29  0.158  0.833  0.158-  52 1.95 114 1.96 118 1.96 106 2.03  96 2.03 100 2.03
  30  0.160  0.833  0.660-  53 1.95 115 1.95 119 1.95 107 2.02  97 2.07 101 2.07
  31  0.340  0.004  0.341- 108 1.92 102 1.96  54 1.96 112 1.98  96 2.05 106 2.09
  32  0.343  0.000  0.844-  55 1.94 109 1.95 113 1.95  97 2.03 103 2.07 107 2.08
  33  0.342  0.333  0.844-  57 1.95 111 1.95 109 1.95  99 2.02 105 2.07 103 2.07
  34  0.340  0.663  0.341- 110 1.92 104 1.96  58 1.96 112 1.98 100 2.05 106 2.09
  35  0.343  0.667  0.844-  59 1.94 111 1.95 113 1.95 101 2.03 105 2.07 107 2.08
  36  0.092  0.001  0.398-  90 1.85 115 1.85  94 1.85  96 1.86
  37  0.090  0.000  0.897- 114 1.83  91 1.85  95 1.85  97 1.87
  38  0.099  0.333  0.397-  98 1.82 117 1.84  92 1.87  90 1.87
  39  0.091  0.333  0.898- 116 1.83  93 1.85  91 1.85  99 1.87
  40  0.092  0.666  0.398-  92 1.85 119 1.85  94 1.85 100 1.86
  41  0.090  0.666  0.897- 118 1.83  93 1.85  95 1.85 101 1.87
  42  0.410  0.166  0.105- 102 1.83 109 1.85  86 1.86  84 1.86
  43  0.406  0.166  0.598- 108 1.82  87 1.85  85 1.86 103 1.89
  44  0.410  0.501  0.105- 104 1.83 111 1.85  86 1.86  88 1.86
  45  0.406  0.500  0.598- 110 1.82  87 1.85  89 1.86 105 1.89
  46  0.410  0.833  0.104- 113 1.85  84 1.85  88 1.85 106 1.86
  47  0.409  0.833  0.601- 112 1.84  85 1.85  89 1.85 107 1.88
  48  0.997  0.166  0.124-  19 1.84  21 1.84  25 1.98
  49  0.997  0.166  0.629-  20 1.85  22 1.85  26 1.95
  50  0.997  0.501  0.124-  23 1.84  21 1.84  27 1.98
  51  0.997  0.500  0.629-  24 1.85  22 1.85  28 1.95
  52  0.995  0.833  0.126-  19 1.84  23 1.84  29 1.95
  53  0.997  0.833  0.630-  20 1.85  24 1.85  30 1.95
  54  0.504  0.001  0.373-  17 1.85  13 1.85  31 1.96
  55  0.505  1.000  0.873-  14 1.85  18 1.85  32 1.94
  56  0.500  0.333  0.371-  15 1.83  13 1.83
  57  0.505  0.333  0.873-  16 1.85  14 1.85  33 1.95
  58  0.504  0.666  0.373-  17 1.85  15 1.85  34 1.96
  59  0.505  0.667  0.873-  16 1.85  18 1.85  35 1.94
  60  0.674  0.166  0.281-  13 1.89   7 2.03   1 2.07   3 2.07
[...]
 105  0.329  0.500  0.721-  45 1.89  28 2.02  33 2.07  35 2.07
 106  0.327  0.833  0.219-  46 1.86  29 2.03  31 2.09  34 2.09
 107  0.328  0.833  0.720-  47 1.88  30 2.02  32 2.08  35 2.08
 108  0.314  0.148  0.451-  43 1.82  31 1.92
 109  0.336  0.167  0.947-  42 1.85  33 1.95  32 1.95
 110  0.314  0.518  0.451-  45 1.82  34 1.92
 111  0.336  0.500  0.947-  44 1.85  33 1.95  35 1.95
 112  0.332  0.833  0.444-  47 1.84  31 1.98  34 1.98
 113  0.334  0.833  0.947-  46 1.85  32 1.95  35 1.95
 114  0.165  1.000  0.054-  37 1.83  29 1.96  25 2.00
 115  0.166  0.999  0.556-  36 1.85  30 1.95  26 1.96
 116  0.171  0.333  0.053-  39 1.83  27 1.97  25 1.97
 117  0.168  0.333  0.556-  38 1.84  28 1.95  26 1.95
 118  0.165  0.667  0.054-  41 1.83  29 1.96  27 2.00
 119  0.166  0.668  0.556-  40 1.85  30 1.95  28 1.96

  LATTYP: Found a simple monoclinic cell.
 ALAT       =    11.6348202465
 B/A-ratio  =     0.7858051831
 C/A-ratio  =     1.0554931797
 COS(beta)  =    -0.2379290539

  Lattice vectors:

 A1 = (   0.0000000000,  -2.7682617730, -11.3006977184)
 A2 = (  -9.1427020537,   0.0000000000,   0.0000000000)
 A3 = (   0.0000000000,  12.2804734172,   0.0000000000)

Analysis of symmetry for initial positions (statically):
 Subroutine PRICEL returns:
 Original cell was already a primitive cell.

 Routine SETGRP: Setting up the symmetry group for a
 simple monoclinic supercell.

 Subroutine GETGRP returns: Found  2 space group operations
 (whereof  1 operations were pure point group operations)
 out of a pool of  4 trial point group operations.

The static configuration has the point symmetry C_1 .
 The point group associated with its full space group is C_1h.

Analysis of symmetry for dynamics (positions and initial velocities):
 Subroutine PRICEL returns:
 Original cell was already a primitive cell.

 Routine SETGRP: Setting up the symmetry group for a
 simple monoclinic supercell.

 Subroutine GETGRP returns: Found  2 space group operations
 (whereof  1 operations were pure point group operations)
 out of a pool of  4 trial point group operations.

The dynamic configuration has the point symmetry C_1 .
 The point group associated with its full space group is C_1h.

 Subroutine INISYM returns: Found  2 space group operations
 (whereof  1 operations are pure point group operations),
 and found     1 'primitive' translations

                                     Primitive cell

  volume of cell :    1268.8052

  direct lattice vectors                    reciprocal lattice vectors
     0.000000000 12.280473417  0.000000000     0.000000000  0.081430085 -0.019947423
     9.142702054  0.000000000  0.000000000     0.109376855 -0.000000000  0.000000000
     0.000000000 -2.768261773-11.300697718     0.000000000  0.000000000 -0.088490111

  length of vectors
    12.280473417  9.142702054 11.634820246     0.083837691  0.109376855  0.088490111

  position of ions in fractional coordinates (direct lattice)
     0.661118817  0.000061660  0.157918903
     0.658168617  0.000282588  0.655467791
     0.661711558  0.333333333  0.158344121
     0.658055433  0.333333333  0.655073261
     0.661118817  0.666605006  0.157918903
     0.658168617  0.666384079  0.655467791
     0.843416322  0.167100987  0.344448037
     0.840284543  0.167196180  0.842560331
     0.843416322  0.499565680  0.344448037
     0.840284543  0.499470487  0.842560331
     0.842183384  0.833333333  0.344252960
     0.839835565  0.833333333  0.842428047
     0.589106427  0.170330425  0.395813577
     0.592101733  0.166494307  0.897883343
     0.589106427  0.496336241  0.395813577
     0.592101733  0.500172359  0.897883343
     0.590361579  0.833333333  0.397122020
     0.592787838  0.833333333  0.898645980
     0.908781820  0.000286055  0.101714529
     0.909520040  0.000131922  0.602971460
     0.911024802  0.333333333  0.102701350
     0.910020830  0.333333333  0.602717488
     0.908781820  0.666380612  0.101714529
     0.909520040  0.666534745  0.602971460
     0.163187917  0.169601343  0.161096445
     0.160160404  0.167034973  0.658163025
     0.163187917  0.497065323  0.161096445
     0.160160404  0.499631693  0.658163025
     0.158419571  0.833333333  0.157909660
     0.160104432  0.833333333  0.659726726
     0.339940530  0.003915743  0.340789205
     0.342714468  0.000163431  0.844030550
     0.342070345  0.333333333  0.843716565
     0.339940530  0.662750923  0.340789205
     0.342714468  0.666503236  0.844030550
[...]
     52     -17.1814      2.00000
     53     -17.1597      2.00000
     54     -17.1527      2.00000
     55     -17.1385      2.00000
     56     -17.1353      2.00000
     57     -17.1173      2.00000
     58     -17.1016      2.00000
     59     -17.0670      2.00000
     60     -17.0633      2.00000
[...]
    611      15.2503      0.00000
    612      15.2867      0.00000
    613      15.4002      0.00000
    614      15.5307      0.00000
    615      15.6179      0.00000
    616      15.7893      0.00000
    617      15.8506      0.00000
    618      15.9381      0.00000
    619      16.0043      0.00000
    620      16.1015      0.00000
    621      16.3422      0.00000
    622      16.4445      0.00000
    623      16.5396      0.00000
    624      16.6444      0.00000
    625      16.7904      0.00000

 soft charge-density along one line, spin component            1
         0         1         2         3         4         5         6         7         8         9
 total charge-density along one line

------------------------ aborting loop because EDIFF is reached ----------------------------------------

  FORCE on cell =-STRESS in cart. coord.  units (eV):
  Direction    XX          YY          ZZ          XY          YZ          ZX
  Alpha Z  5383.97153  5383.97153  5383.97153
  Ewald  -24729.91300-31478.22747-30387.77476     0.00000 -1393.16338    -0.00000
  Hartree 13935.21052  9714.22499 10412.04067     0.00658  -944.39641     0.00438
  E(xc)   -4047.67176 -4050.53555 -4049.55170    -0.00001    -0.38161     0.00002
  Local   -5899.48439  4924.52095  3118.08595    -0.02279  2310.12824    -0.00438
  n-local  5827.58431  5773.27790  5797.30059    -0.00282    -4.68578     0.00043
  augment  5407.41814  5428.39000  5433.99617     0.00237     4.96388     0.00020
  Kinetic 12377.95956 12563.28779 12548.26099     0.02198    28.38140    -0.00390
  Fock    -8292.84009 -8296.07298 -8290.71406    -0.00184     0.77191     0.00010
  Total     -37.76517   -37.16283   -34.38462     0.00000     1.61826     0.00000
  in kB     -47.68778   -46.92718   -43.41901     0.00000     2.04344     0.00000

 VOLUME and BASIS-vectors are now :
  energy-cutoff  :      450.00
  volume of cell :     1268.81
      direct lattice vectors                 reciprocal lattice vectors
     0.000000000 12.280473417  0.000000000     0.000000000  0.081430085 -0.019947423
     9.142702054  0.000000000  0.000000000     0.109376855 -0.000000000  0.000000000
     0.000000000 -2.768261773-11.300697718     0.000000000  0.000000000 -0.088490111

  length of vectors
    12.280473417  9.142702054 11.634820246     0.083837691  0.109376855  0.088490111

 FORCES acting on ions:
    Electron-Ion                     Ewald-Force                    Non-Local-Force
   -.176E+02 0.843E+02 -.633E+02   0.175E+02 -.842E+02 0.677E+02   0.483E-01 -.124E-01 -.403E+01
   -.211E+02 0.822E+02 -.128E+03   0.209E+02 -.817E+02 0.133E+03   0.106E+00 -.307E+00 -.429E+01
   -.655E-03 0.116E+03 -.654E+02   -.243E-10 -.114E+03 0.695E+02   0.000E+00 -.159E+01 -.381E+01
   -.940E-03 0.121E+03 -.149E+03   -.347E-10 -.119E+03 0.154E+03   0.000E+00 -.163E+01 -.410E+01
   0.176E+02 0.843E+02 -.633E+02   -.175E+02 -.842E+02 0.677E+02   -.483E-01 -.124E-01 -.403E+01
   0.211E+02 0.822E+02 -.128E+03   -.209E+02 -.817E+02 0.133E+03   -.106E+00 -.307E+00 -.429E+01
   -.116E+02 -.339E+02 0.840E+02   0.117E+02 0.339E+02 -.887E+02   -.940E-01 -.108E+00 0.443E+01
   -.588E+01 -.353E+02 0.808E+02   0.598E+01 0.351E+02 -.854E+02   -.993E-01 0.203E+00 0.432E+01
   0.116E+02 -.339E+02 0.840E+02   -.117E+02 0.339E+02 -.887E+02   0.940E-01 -.108E+00 0.443E+01
   0.588E+01 -.353E+02 0.808E+02   -.598E+01 0.351E+02 -.854E+02   0.993E-01 0.203E+00 0.432E+01
   0.539E-03 -.277E+02 0.843E+02   -.483E-10 0.277E+02 -.890E+02   0.000E+00 -.119E-01 0.446E+01
   0.509E-03 -.410E+02 0.811E+02   -.109E-10 0.403E+02 -.855E+02   0.000E+00 0.603E+00 0.414E+01
   -.710E+02 0.130E+03 -.257E+01   0.716E+02 -.132E+03 0.105E+01   -.100E+01 0.241E+01 0.139E+01
   -.160E+02 -.140E+02 0.210E+02   0.160E+02 0.117E+02 -.225E+02   0.503E-01 0.202E+01 0.148E+01
   0.710E+02 0.130E+03 -.257E+01   -.716E+02 -.132E+03 0.105E+01   0.100E+01 0.241E+01 0.139E+01
   0.160E+02 -.140E+02 0.210E+02   -.160E+02 0.117E+02 -.225E+02   -.503E-01 0.202E+01 0.148E+01
   0.197E-02 0.114E+02 0.164E+02   -.310E-10 -.128E+02 -.185E+02   0.000E+00 0.138E+01 0.200E+01
   0.441E-03 -.203E+02 0.242E+02   -.299E-10 0.180E+02 -.258E+02   0.000E+00 0.199E+01 0.145E+01
   -.169E+02 0.288E+02 -.988E+01   0.169E+02 -.258E+02 0.114E+02   0.679E-01 -.263E+01 -.141E+01
   -.700E+01 0.499E+02 -.490E+02   0.719E+01 -.482E+02 0.508E+02   -.162E+00 -.159E+01 -.177E+01
   -.925E-03 0.176E+02 0.317E+00   -.795E-11 -.148E+02 0.133E+01   0.000E+00 -.247E+01 -.150E+01
   -.635E-03 0.455E+02 -.535E+02   -.602E-10 -.437E+02 0.553E+02   0.000E+00 -.162E+01 -.172E+01
   0.169E+02 0.288E+02 -.988E+01   -.169E+02 -.258E+02 0.114E+02   -.679E-01 -.263E+01 -.141E+01
   0.700E+01 0.499E+02 -.490E+02   -.719E+01 -.482E+02 0.508E+02   0.162E+00 -.159E+01 -.177E+01
   -.963E+02 -.855E+02 0.397E+02   0.986E+02 0.877E+02 -.384E+02   -.220E+01 -.228E+01 -.971E+00
   -.150E+02 -.182E+01 -.113E+03   0.156E+02 0.171E+01 0.116E+03   -.522E+00 -.137E-01 -.374E+01
   0.963E+02 -.855E+02 0.397E+02   -.986E+02 0.877E+02 -.384E+02   0.220E+01 -.228E+01 -.971E+00
   0.150E+02 -.182E+01 -.113E+03   -.156E+02 0.171E+01 0.116E+03   0.522E+00 -.137E-01 -.374E+01
   0.360E-02 -.475E+01 -.668E+02   -.113E-10 0.460E+01 0.699E+02   0.000E+00 0.164E+00 -.289E+01
   0.267E-02 0.129E+02 -.985E+02   -.609E-10 -.126E+02 0.102E+03   0.000E+00 -.272E+00 -.343E+01
   -.192E+03 -.880E+02 0.114E+03   0.194E+03 0.874E+02 -.115E+03   -.192E+01 0.533E+00 0.136E+01
   -.140E+02 -.432E+02 0.871E+02   0.139E+02 0.432E+02 -.922E+02   0.312E-01 -.534E-01 0.464E+01
   -.183E-02 -.516E+02 0.929E+02   -.451E-10 0.513E+02 -.978E+02   0.000E+00 0.250E+00 0.447E+01
   0.193E+03 -.880E+02 0.114E+03   -.194E+03 0.874E+02 -.115E+03   0.192E+01 0.533E+00 0.136E+01
   0.140E+02 -.432E+02 0.871E+02   -.139E+02 0.432E+02 -.922E+02   -.312E-01 -.534E-01 0.464E+01
   -.362E+02 -.102E+03 0.268E+02   0.364E+02 0.995E+02 -.263E+02   -.240E+00 0.244E+01 -.302E+00
   -.127E+02 -.762E+02 0.607E+02   0.129E+02 0.740E+02 -.633E+02   -.156E+00 0.186E+01 0.243E+01
   -.199E-02 -.243E+03 0.205E+02   -.853E-10 0.240E+03 -.189E+02   0.000E+00 0.208E+01 -.145E+01
   -.144E-02 -.769E+02 0.787E+02   -.600E-10 0.753E+02 -.813E+02   0.000E+00 0.134E+01 0.241E+01
   0.362E+02 -.102E+03 0.268E+02   -.364E+02 0.995E+02 -.263E+02   0.240E+00 0.244E+01 -.302E+00
   0.127E+02 -.762E+02 0.607E+02   -.129E+02 0.740E+02 -.633E+02   0.156E+00 0.186E+01 0.243E+01
   -.108E+03 0.967E+02 0.910E+02   0.106E+03 -.970E+02 -.902E+02   0.202E+01 0.451E+00 -.494E+00
   -.115E+03 0.800E+01 -.204E+03   0.114E+03 -.715E+01 0.204E+03   0.143E+01 -.559E+00 -.102E+01
   0.108E+03 0.968E+02 0.910E+02   -.106E+03 -.970E+02 -.902E+02   -.202E+01 0.451E+00 -.494E+00
   0.115E+03 0.800E+01 -.204E+03   -.114E+03 -.715E+01 0.204E+03   -.143E+01 -.559E+00 -.102E+01
   0.326E-02 0.655E+02 0.556E+01   -.145E-11 -.638E+02 -.405E+01   0.000E+00 -.148E+01 -.132E+01
   0.160E-02 0.384E+02 -.779E+02   -.401E-10 -.363E+02 0.795E+02   0.000E+00 -.185E+01 -.170E+01
   -.560E+01 -.546E+02 0.259E+02   0.534E+01 0.644E+02 -.288E+02   0.242E+00 -.844E+01 0.244E+01
   -.466E+01 -.268E+02 0.634E+01   0.462E+01 0.340E+02 -.105E+02   0.347E-01 -.616E+01 0.359E+01
   0.560E+01 -.546E+02 0.259E+02   -.534E+01 0.644E+02 -.288E+02   -.242E+00 -.844E+01 0.244E+01
   0.466E+01 -.268E+02 0.634E+01   -.462E+01 0.340E+02 -.105E+02   -.347E-01 -.616E+01 0.359E+01
   0.512E-03 -.338E+02 0.218E+02   -.790E-12 0.419E+02 -.255E+02   0.000E+00 -.700E+01 0.316E+01
   0.302E-03 -.234E+02 0.847E+01   -.370E-10 0.305E+02 -.127E+02   0.000E+00 -.603E+01 0.370E+01
   -.510E+02 0.583E+02 -.117E+02   0.509E+02 -.656E+02 0.153E+02   0.170E+00 0.616E+01 -.312E+01
   -.649E+01 0.267E+02 -.204E+02   0.635E+01 -.340E+02 0.242E+02   0.127E+00 0.626E+01 -.329E+01
   -.870E-03 0.313E+03 -.584E+02   -.275E-10 -.342E+03 0.658E+02   0.000E+00 0.241E+02 -.630E+01
   -.335E-03 0.286E+02 -.226E+02   -.325E-10 -.360E+02 0.265E+02   0.000E+00 0.634E+01 -.337E+01
   0.510E+02 0.583E+02 -.117E+02   -.509E+02 -.656E+02 0.153E+02   -.170E+00 0.616E+01 -.312E+01
   0.649E+01 0.267E+02 -.204E+02   -.635E+01 -.340E+02 0.242E+02   -.127E+00 0.626E+01 -.329E+01
   -.771E+01 0.103E+03 0.542E+02   0.721E+01 -.101E+03 -.505E+02   0.490E+00 -.205E+01 -.323E+01
[...]
   0.256E-02 -.665E+02 -.126E+02   -.110E-11 0.638E+02 0.708E+01   0.000E+00 0.227E+01 0.467E+01
   0.640E-03 -.778E+02 -.490E+02   -.227E-10 0.767E+02 0.443E+02   0.000E+00 0.102E+01 0.412E+01
   -.204E+03 0.569E+02 -.843E+02   0.214E+03 -.713E+02 0.956E+02   -.871E+01 0.123E+02 -.952E+01
   -.127E+02 0.118E+03 0.905E+02   0.127E+02 -.130E+03 -.876E+02   -.177E-02 0.103E+02 -.256E+01
   0.204E+03 0.569E+02 -.843E+02   -.214E+03 -.713E+02 0.956E+02   0.871E+01 0.123E+02 -.952E+01
   0.127E+02 0.118E+03 0.905E+02   -.127E+02 -.130E+03 -.876E+02   0.177E-02 0.103E+02 -.256E+01
   0.784E-03 0.984E+02 0.393E+02   -.817E-11 -.110E+03 -.340E+02   0.000E+00 0.101E+02 -.460E+01
   0.902E-03 0.123E+03 0.753E+02   -.201E-10 -.135E+03 -.721E+02   0.000E+00 0.106E+02 -.274E+01
   -.224E+02 -.130E+03 -.360E+02   0.237E+02 0.141E+03 0.307E+02   -.105E+01 -.936E+01 0.447E+01
   -.791E+01 -.133E+03 -.783E+02   0.779E+01 0.143E+03 0.754E+02   0.166E+00 -.923E+01 0.251E+01
   -.158E-02 -.163E+03 0.481E+01   -.840E-11 0.175E+03 -.946E+01   0.000E+00 -.109E+02 0.390E+01
   -.983E-03 -.163E+03 -.107E+03   -.383E-10 0.174E+03 0.104E+03   0.000E+00 -.920E+01 0.265E+01
   0.224E+02 -.130E+03 -.360E+02   -.237E+02 0.141E+03 0.307E+02   0.105E+01 -.936E+01 0.447E+01
   0.791E+01 -.133E+03 -.783E+02   -.779E+01 0.143E+03 0.754E+02   -.166E+00 -.923E+01 0.251E+01
   0.599E-02 -.136E+02 -.782E+00   0.471E-13 0.966E-12 -.134E-11   0.444E-15 0.112E+02 0.784E+00

 POSITION                                       TOTAL-FORCE (eV/Angst)
      0.00056      7.68169     -1.78459        -0.044035      0.075428      0.103067
      0.00258      6.26812     -7.40724        -0.044314      0.146116     -0.070622
      3.04757      7.68779     -1.78940        -0.000000      0.210893      0.104364
      3.04757      6.26782     -7.40278        -0.000000      0.209019     -0.126820
      6.09457      7.68169     -1.78459         0.044035      0.075428      0.103067
      6.09255      6.26812     -7.40724         0.044314      0.146116     -0.070622
      1.52775      9.40403     -3.89250         0.001789     -0.019094     -0.038989
      1.52862      7.98666     -9.52152        -0.001177     -0.021717     -0.075561
      4.56738      9.40403     -3.89250        -0.001789     -0.019094     -0.038989
      4.56651      7.98666     -9.52152         0.001177     -0.021717     -0.075561
      7.61892      9.38943     -3.89030        -0.000000     -0.061937     -0.031693
      7.61892      7.98152     -9.52002        -0.000000     -0.049681     -0.064866
      1.55728      6.13879     -4.47297        -0.382224      0.261155     -0.034479
      1.52221      4.78571    -10.14671        -0.010908     -0.047961     -0.008345
      4.53785      6.13879     -4.47297         0.382224      0.261155     -0.034479
      4.57293      4.78571    -10.14671         0.010908     -0.047961     -0.008345
      7.61892      6.15058     -4.48776        -0.000000      0.103728     -0.015756
      7.61892      4.79203    -10.15533        -0.000000     -0.043971     -0.019366
      0.00262     10.87870     -1.14945         0.018013      0.072395      0.035023
      0.00121      9.50015     -6.81400         0.017218      0.018851     -0.020063
      3.04757     10.90351     -1.16060        -0.000000      0.073628      0.040964
      3.04757      9.50701     -6.81113        -0.000000      0.034292     -0.026891
      6.09252     10.87870     -1.14945        -0.018013      0.072395      0.035023
      6.09393      9.50015     -6.81400        -0.017218      0.018851     -0.020063
      1.55061      1.55807     -1.82050        -0.021363     -0.151541      0.250364
      1.52715      0.14488     -7.43770         0.020755     -0.100603     -0.113050
      4.54452      1.55807     -1.82050         0.021363     -0.151541      0.250364
      4.56798      0.14488     -7.43770        -0.020755     -0.100603     -0.113050
      7.61892      1.50833     -1.78449        -0.000000     -0.006491      0.112807
      7.61892      0.13986     -7.45537        -0.000000     -0.022038     -0.121914
      0.03580      3.23124     -3.85116        -0.431811      0.026365      0.417211
      0.00149      1.87220     -9.53813        -0.051094     -0.023337     -0.130213
      3.04757      1.86516     -9.53459        -0.000000     -0.033788     -0.124599
      6.05933      3.23124     -3.85116         0.431811      0.026365      0.417211
      6.09364      1.87220     -9.53813         0.051094     -0.023337     -0.130213
      0.00474      0.02836     -4.49329        -0.045357     -0.245817      0.109261
      0.00175     -1.37925    -10.14127         0.014280     -0.109067      0.010384
      3.04757      0.11332     -4.48711        -0.000000     -0.432513      0.038447
      3.04757     -1.36849    -10.15067        -0.000000     -0.097171      0.005298
      6.09040      0.02836     -4.49329         0.045357     -0.245817      0.109261
      6.09338     -1.37925    -10.14127        -0.014280     -0.109067      0.010384
      1.51582      4.74214     -1.18628        -0.114721      0.177272      0.194298
      1.52083      3.32632     -6.76069        -0.029353      0.192299     -0.687458
      4.57932      4.74214     -1.18628         0.114721      0.177272      0.194298
      4.57430      3.32632     -6.76069         0.029353      0.192299     -0.687458
      7.61892      4.74702     -1.17478        -0.000000      0.080475      0.078285
      7.61892      3.35684     -6.78666        -0.000000      0.049038     -0.171227
      1.51589     11.89838     -1.40608         0.032166     -0.194282      0.050411
      1.52220     10.50685     -7.10725         0.002877     -0.120762      0.147004
      4.57924     11.89838     -1.40608        -0.032166     -0.194282      0.050411
      4.57293     10.50685     -7.10725        -0.002877     -0.120762      0.147004
      7.61892     11.86930     -1.42132        -0.000000     -0.148698      0.084853
      7.61892     10.50181     -7.11389        -0.000000     -0.092643      0.154560
      0.00828      5.15421     -4.21715         0.137392      0.009886     -0.130637
      9.13932      3.78631     -9.86760         0.016663      0.161627     -0.098942
      3.04757      5.11510     -4.19511        -0.000000      0.352459     -0.084207
      3.04757      3.78480     -9.86011        -0.000000      0.151608     -0.108919
      6.08685      5.15421     -4.21715        -0.137392      0.009886     -0.130637
      6.09852      3.78631     -9.86760        -0.016663      0.161627     -0.098942
      1.52128      7.50375     -3.17299         0.089712     -0.191632     -0.167520
[...]
      4.56918      2.04015     -8.14298        -0.004233      0.039497      0.281675
      7.61892      3.41494     -2.47559        -0.000000      0.026707      0.050593
      7.61892      2.04012     -8.13343        -0.000000      0.017541      0.202713
      1.35541      2.61296     -5.09391        -0.145424      0.299442     -0.076133
      1.52712      1.50199    -10.70017         0.014824      0.356832     -0.079200
      4.73972      2.61296     -5.09391         0.145424      0.299442     -0.076133
      4.56801      1.50199    -10.70017        -0.014824      0.356832     -0.079200
      7.61892      2.85398     -5.01764        -0.000000      0.343166     -0.146815
      7.61892      1.48269    -10.69677        -0.000000      0.382000     -0.046446
      9.13878      1.87574     -0.60555         0.005078     -0.271636     -0.006018
      9.13437      0.50454     -6.28153         0.105488     -0.174621      0.147367
      3.04757      1.95015     -0.59516        -0.000000     -0.347335     -0.024143
      3.04757      0.52425     -6.28491        -0.000000     -0.185027      0.148500
      6.09906      1.87574     -0.60555        -0.005078     -0.271636     -0.006018
      6.10347      0.50454     -6.28153        -0.105488     -0.174621      0.147367
    total drift:                                0.005990     -0.004552     -0.074994

  FREE ENERGIE OF THE ION-ELECTRON SYSTEM (eV)
  free  energy   TOTEN  =      -940.63309406 eV

  energy  without entropy=     -940.61738472  energy(sigma->0) =     -940.62523939

 writing wavefunctions