 vasp.6.4.2 20Jul23 (build Nov 12 2023 22:16:35) complex
 executed on              LinuxNV date 2025.03.11  23:31:53
 OpenACC runtime initialized ...    4 GPUs detected

 INCAR:
   PREC = Normal
   ENCUT = 450
   NELM = 500
   IBRION = -1
   ISPIN = 1
   NSW = 0
   ISIF = 2
   EDIFF = 1E-5
   EDIFFG = -5E-3
   ISTART = 0
   ICHARG = 0
   ISMEAR = 0
   SIGMA = 0.05
   LWAVE = .T.
   LCHARG = .T.
   LREAL = Auto
   LPLANE = .TRUE.
   NPAR = 1
   KPAR = 4
   NCORE = 1
   ALGO = All
   LHFCALC = .TRUE.
   HSE06 = .TRUE.
   HFSCREEN = 0.18
   TIME = 0.4
   AEXX = 0.35
   LMAXFOCK = 4
   PRECFOCK = Fast

 POTCAR:    PAW_PBE Ga_d 06Jul2010
 POTCAR:     PAW_PBE O 08Apr2002
 POTCAR:    PAW_PBE P 06Sep2000
 POTCAR:    PAW_PBE Ga_d 06Jul2010
   VRHFIN =Ga: s2p1

   TITEL  = PAW_PBE Ga_d 06Jul2010
   POMASS =   69.723; ZVAL   =   13.000    mass and valenz
   ENMAX  =  282.691; ENMIN  =  212.018 eV

   TITEL  = PAW_PBE O 08Apr2002
   POMASS =   16.000; ZVAL   =    6.000    mass and valenz
   ENMAX  =  400.000; ENMIN  =  300.000 eV

   TITEL  = PAW_PBE P 06Sep2000
   POMASS =   30.974; ZVAL   =    5.000    mass and valenz
   ENMAX  =  255.040; ENMIN  =  191.280 eV

 Optimization of the real space projectors (new method)

 maximal supplied QI-value         = 16.25
 optimisation between [QCUT,QGAM] = [ 10.73, 21.61] = [ 32.22,130.83] Ry
 Optimized for a Real-space Cutoff    1.42 Angstroem

   l    n(q)    QCUT    max X(q) W(low)/X(q) W(high)/X(q)  e(spline)
   2      8    10.726     7.143    0.22E-03    0.16E-03    0.73E-07
   2      8    10.726     5.586    0.40E-03    0.26E-03    0.10E-06
   0      9    10.726    12.382    0.25E-04    0.21E-05    0.37E-07
   0      9    10.726     6.622    0.42E-04    0.48E-05    0.77E-07
   1      9    10.726     7.935    0.27E-03    0.13E-04    0.16E-06
   1      9    10.726     2.425    0.23E-03    0.15E-04    0.14E-06
 Optimization of the real space projectors (new method)

[...]

   l    n(q)    QCUT    max X(q) W(low)/X(q) W(high)/X(q)  e(spline)
   0      8    10.645    20.381    0.38E-03    0.60E-03    0.15E-06
   0      8    10.645    15.268    0.40E-03    0.65E-03    0.17E-06
   1      7    10.645     5.964    0.30E-03    0.63E-03    0.18E-06
   1      7    10.645     5.382    0.24E-03    0.53E-03    0.16E-06
 Optimization of the real space projectors (new method)

 maximal supplied QI-value         = 19.84
 optimisation between [QCUT,QGAM] = [ 10.71, 21.63] = [ 32.15,130.99] Ry
 Optimized for a Real-space Cutoff    1.19 Angstroem

   l    n(q)    QCUT    max X(q) W(low)/X(q) W(high)/X(q)  e(spline)
   0      8    10.715   160.924    0.37E-03    0.37E-04    0.63E-07
   0      8    10.715   130.086    0.37E-03    0.36E-04    0.63E-07
   1      7    10.715    74.434    0.19E-03    0.56E-03    0.65E-07
   1      7    10.715    49.120    0.19E-03    0.55E-03    0.63E-07
  PAW_PBE Ga_d 06Jul2010                :
   PAW_PBE O 08Apr2002                  :
  PAW_PBE P 06Sep2000                   :

 POSCAR: Ga48 O72
  positions in direct lattice
  velocities in cartesian coordinates
 exchange correlation table for  LEXCH =        8
   RHO(1)=    0.500       N(1)  =     2000
   RHO(2)=  100.500       N(2)  =     4000

 ion  position               nearest neighbor table
   1  0.656  0.997  0.155-  84 1.94  82 1.94  78 1.96  66 2.03  64 2.08  60 2.09
   2  0.660  0.002  0.657-  85 1.94  83 1.95  79 1.96  67 2.02  65 2.07  61 2.08
   3  0.657  0.332  0.157-  78 1.95  86 1.95  80 1.96  62 2.06  68 2.06  60 2.07
   4  0.659  0.335  0.657-  87 1.94  81 1.95  79 1.95  69 2.02  63 2.08  61 2.08
   5  0.659  0.666  0.158-  80 1.96  88 1.96  82 1.96  70 2.02  64 2.06  62 2.08
   6  0.660  0.668  0.657-  89 1.94  83 1.95  81 1.96  71 2.02  63 2.08  65 2.09
   7  0.833  0.156  0.341-  72 1.93  74 1.93  60 1.98  66 2.01  68 2.08
   8  0.841  0.168  0.844-  73 1.95  75 1.95  90 1.95  61 2.02  67 2.07  69 2.08
   9  0.847  0.494  0.343-  91 1.94  76 1.96  74 1.97  68 2.06  62 2.08  70 2.08
  10  0.841  0.502  0.844-  92 1.94  77 1.95  75 1.96  63 2.02  71 2.08  69 2.08
  11  0.846  0.829  0.344-  93 1.90  76 1.97  72 1.98  64 2.07  70 2.09  66 2.11
  12  0.842  0.836  0.844-  94 1.95  77 1.95  73 1.96  65 2.02  67 2.08  71 2.08
  13  0.588  0.167  0.398-  54 1.84  79 1.84  56 1.84  60 1.88
  14  0.590  0.167  0.897-  78 1.84  57 1.85  55 1.85  61 1.87
  15  0.591  0.502  0.397-  81 1.85  58 1.85  56 1.85  62 1.87
  16  0.589  0.501  0.897-  80 1.85  57 1.85  59 1.85  63 1.88
  17  0.593  0.835  0.397-  83 1.84  58 1.85  54 1.85  64 1.87
  18  0.591  0.834  0.897-  82 1.84  59 1.85  55 1.85  65 1.87
  19  0.910  0.002  0.105-  52 1.84  73 1.84  48 1.85  66 1.87
  20  0.909  0.001  0.602-  53 1.84  72 1.84  49 1.85  67 1.87
  21  0.909  0.336  0.103-  75 1.84  50 1.84  48 1.85  68 1.87
  22  0.909  0.335  0.603-  51 1.84  49 1.84  74 1.85  69 1.87
  23  0.908  0.667  0.102-  77 1.84  50 1.84  52 1.84  70 1.86
  24  0.908  0.666  0.601-  76 1.84  51 1.85  53 1.85  71 1.87
  25  0.158  0.174  0.158- 115 1.94  48 1.94 113 1.95 101 2.00  97 2.04  95 2.23
  26  0.159  0.174  0.656- 116 1.93  49 1.94 102 2.01  98 2.06  96 2.06 114 2.08
  27  0.160  0.502  0.157-  50 1.95 117 1.96 115 1.96  97 2.01 103 2.03  99 2.07
  28  0.159  0.505  0.656- 116 1.91 118 1.95  51 1.95 104 2.04 100 2.06  98 2.11
  29  0.155  0.830  0.156-  52 1.91 117 1.94 113 1.95 105 2.00  99 2.03  95 2.36
  30  0.155  0.835  0.649- 118 1.92  53 1.92 106 2.01  96 2.08 100 2.11 114 2.13
  31  0.339  0.003  0.348- 111 1.93 107 1.93  54 1.96 101 2.05 105 2.07  95 2.18
  32  0.340  0.001  0.840-  55 1.94 108 1.96 112 1.96 102 2.05  96 2.06 106 2.06
  33  0.342  0.338  0.343-  56 1.93 109 1.95 107 1.96  97 1.98 103 2.08 101 2.13
  34  0.339  0.336  0.844-  57 1.94 110 1.95 108 1.96  98 2.01 104 2.08 102 2.13
  35  0.340  0.670  0.344- 109 1.94 111 1.95  58 1.95  99 2.02 103 2.07 105 2.11
  36  0.339  0.669  0.843-  59 1.95 110 1.96 112 1.96 100 2.01 104 2.05 106 2.15
  37  0.093  0.002  0.897-  94 1.85  90 1.85 113 1.87  96 1.91
  38  0.099  0.312  0.401- 116 1.88  91 1.92  97 1.93 119 2.43
  39  0.091  0.336  0.898- 115 1.84  92 1.84  90 1.85  98 1.87
  40  0.088  0.664  0.395-  93 1.83 118 1.86  91 1.87  99 1.89
  41  0.091  0.668  0.896- 117 1.84  92 1.85  94 1.85 100 1.87
  42  0.406  0.166  0.102-  86 1.85  84 1.85 108 1.85 101 1.89
  43  0.411  0.170  0.604- 107 1.84  87 1.84  85 1.85 102 1.87
  44  0.409  0.502  0.102- 110 1.84  88 1.85  86 1.85 103 1.86
  45  0.408  0.503  0.603- 109 1.84  87 1.85  89 1.85 104 1.87
  46  0.404  0.835  0.102-  84 1.85  88 1.85 112 1.86 105 1.90
  47  0.411  0.836  0.602- 111 1.84  89 1.84  85 1.85 106 1.88
  48  0.997  0.170  0.139-  21 1.85  19 1.85  25 1.94
  49  0.996  0.168  0.623-  22 1.84  20 1.85  26 1.94
  50  0.997  0.502  0.126-  21 1.84  23 1.84  27 1.95
  51  0.996  0.501  0.628-  22 1.84  24 1.85  28 1.95
  52  0.995  0.834  0.127-  19 1.84  23 1.84  29 1.91
  53  0.995  0.834  0.627-  20 1.84  24 1.85  30 1.92
  54  0.503  1.000  0.373-  13 1.84  17 1.85  31 1.96
  55  0.502  0.000  0.872-  18 1.85  14 1.85  32 1.94
  56  0.503  0.336  0.372-  13 1.84  15 1.85  33 1.93
  57  0.502  0.334  0.872-  14 1.85  16 1.85  34 1.94
  58  0.504  0.669  0.372-  17 1.85  15 1.85  35 1.95
  59  0.502  0.669  0.872-  18 1.85  16 1.85  36 1.95
  60  0.669  0.165  0.280-  13 1.88   7 1.98   3 2.07   1 2.09
[...]
 105  0.321  0.842  0.220-  46 1.90  29 2.00  31 2.07  35 2.11
 106  0.323  0.840  0.713-  47 1.88  30 2.01  32 2.06  36 2.15
 107  0.335  0.171  0.447-  43 1.84  31 1.93  33 1.96
 108  0.329  0.166  0.945-  42 1.85  32 1.96  34 1.96
 109  0.334  0.504  0.446-  45 1.84  35 1.94  33 1.95
 110  0.331  0.502  0.946-  44 1.84  34 1.95  36 1.96
 111  0.333  0.836  0.447-  47 1.84  31 1.93  35 1.95
 112  0.328  0.836  0.944-  46 1.86  36 1.96  32 1.96
 113  0.162  0.002  0.059-  37 1.87  25 1.95  29 1.95
 114  0.146  0.012  0.528- 119 1.66  26 2.08  30 2.13
 115  0.168  0.335  0.053-  39 1.84  25 1.94  27 1.96
 116  0.175  0.340  0.560-  38 1.88  28 1.91  26 1.93
 117  0.168  0.668  0.053-  41 1.84  29 1.94  27 1.96
 118  0.168  0.669  0.552-  40 1.86  30 1.92  28 1.95
 119  0.072  0.048  0.391- 114 1.66  95 1.68  93 2.12  38 2.43

  LATTYP: Found a simple monoclinic cell.
 ALAT       =    11.6348202465
 B/A-ratio  =     0.7858051831
 C/A-ratio  =     1.0554931797
 COS(beta)  =    -0.2379290539

  Lattice vectors:

 A1 = (   0.0000000000,  -2.7682617730, -11.3006977184)
 A2 = (  -9.1427020537,   0.0000000000,   0.0000000000)
 A3 = (   0.0000000000,  12.2804734172,   0.0000000000)

Analysis of symmetry for initial positions (statically):
 Subroutine PRICEL returns:
 Original cell was already a primitive cell.

 Routine SETGRP: Setting up the symmetry group for a
 simple monoclinic supercell.

 Subroutine GETGRP returns: Found  1 space group operations
 (whereof  1 operations were pure point group operations)
 out of a pool of  4 trial point group operations.

The static configuration has the point symmetry C_1 .

Analysis of symmetry for dynamics (positions and initial velocities):
 Subroutine PRICEL returns:
 Original cell was already a primitive cell.

 Routine SETGRP: Setting up the symmetry group for a
 simple monoclinic supercell.

 Subroutine GETGRP returns: Found  1 space group operations
 (whereof  1 operations were pure point group operations)
 out of a pool of  4 trial point group operations.

The dynamic configuration has the point symmetry C_1 .

 Subroutine INISYM returns: Found  1 space group operations
 (whereof  1 operations are pure point group operations),
 and found     1 'primitive' translations

                                     Primitive cell

  volume of cell :    1268.8052

  direct lattice vectors                    reciprocal lattice vectors
     0.000000000 12.280473417  0.000000000     0.000000000  0.081430085 -0.019947423
     9.142702054  0.000000000  0.000000000     0.109376855 -0.000000000  0.000000000
     0.000000000 -2.768261773-11.300697718     0.000000000  0.000000000 -0.088490111

  length of vectors
    12.280473417  9.142702054 11.634820246     0.083837691  0.109376855  0.088490111

  position of ions in fractional coordinates (direct lattice)
     0.656187008  0.997317154  0.155125255
     0.660275356  0.001786824  0.656854752
     0.656943673  0.332208919  0.156965831
     0.659349068  0.335378205  0.657047077
     0.658919220  0.665769571  0.158092001
     0.659838505  0.668271126  0.656720618
     0.833489608  0.156420063  0.340837501
     0.841278634  0.168211176  0.843861533
     0.846942539  0.494207877  0.342646730
     0.840717039  0.501908097  0.843553184
     0.846193310  0.828991774  0.344164291
     0.841724242  0.835674319  0.844104239
     0.588355526  0.167324554  0.398310094
     0.590115361  0.167363433  0.897343005
     0.591381274  0.502324051  0.397121036
     0.588777047  0.501315998  0.896857220
     0.592573303  0.835007176  0.397331296
     0.590909539  0.834278662  0.897394805
     0.910051375  0.002100208  0.104542885
     0.908642515  0.000870572  0.601542807
     0.909029686  0.335866865  0.103078955
     0.909389981  0.334506422  0.602614566
     0.907861396  0.666953450  0.101583291
[...]
     52     -17.4346      2.00000
     53     -17.4130      2.00000
     54     -17.4098      2.00000
     55     -17.4044      2.00000
     56     -17.3969      2.00000
     57     -17.3819      2.00000
     58     -17.3785      2.00000
     59     -17.3642      2.00000
     60     -17.3599      2.00000
[...]
    611      15.4547      0.00000
    612      15.5785      0.00000
    613      15.7058      0.00000
    614      15.7819      0.00000
    615      15.9324      0.00000
    616      15.9720      0.00000
    617      16.0200      0.00000
    618      16.1459      0.00000
    619      16.2569      0.00000
    620      16.3885      0.00000
    621      16.5370      0.00000
    622      16.6934      0.00000
    623      16.7060      0.00000
    624      16.8997      0.00000
    625      17.0196      0.00000

 soft charge-density along one line, spin component            1
         0         1         2         3         4         5         6         7         8         9
 total charge-density along one line

------------------------ aborting loop because EDIFF is reached ----------------------------------------

  FORCE on cell =-STRESS in cart. coord.  units (eV):
  Direction    XX          YY          ZZ          XY          YZ          ZX
  Alpha Z  5376.25787  5376.25787  5376.25787
  Ewald  -24399.55035-31838.33370-30486.55562  -202.42240 -1651.48450    -4.13136
  Hartree 14142.58749  9416.17010 10266.05312  -139.18514 -1150.79537     5.63176
  E(xc)   -3866.54198 -3869.61758 -3868.60610    -0.08677    -0.34661    -0.01732
  Local   -6416.61555  5600.36354  3389.85920   336.43291  2774.91809    -0.83709
  n-local  6671.84560  6617.74353  6635.04308    -3.29578    -7.50054    -0.99883
  augment  5311.43764  5331.25866  5339.70258    -0.36653     6.01107     0.19829
  Kinetic 12295.51634 12489.12204 12464.35717    16.44975    29.47354    -1.52723
  Fock    -9165.53317 -9171.18838 -9167.70268    -0.09799    -0.22729    -0.10446
  Total     -50.59611   -48.22391   -51.59138     7.42804     0.04840    -1.78625
  in kB     -63.88998   -60.89450   -65.14676     9.37971     0.06111    -2.25557

 VOLUME and BASIS-vectors are now :
  energy-cutoff  :      450.00
  volume of cell :     1268.81
      direct lattice vectors                 reciprocal lattice vectors
     0.000000000 12.280473417  0.000000000     0.000000000  0.081430085 -0.019947423
     9.142702054  0.000000000  0.000000000     0.109376855 -0.000000000  0.000000000
     0.000000000 -2.768261773-11.300697718     0.000000000  0.000000000 -0.088490111

  length of vectors
    12.280473417  9.142702054 11.634820246     0.083837691  0.109376855  0.088490111

 FORCES acting on ions:
    Electron-Ion                     Ewald-Force                    Non-Local-Force
   -.510E+01 0.846E+01 -.554E+02   0.423E+01 -.696E+01 0.599E+02   0.793E+00 -.112E+01 -.431E+01
   -.289E+01 0.254E+02 -.954E+02   0.268E+01 -.251E+02 0.999E+02   0.192E+00 -.230E+00 -.420E+01
   0.452E+01 -.620E+01 -.517E+02   -.444E+01 0.608E+01 0.560E+02   -.103E+00 0.253E+00 -.408E+01
   0.498E+01 0.218E+02 -.987E+02   -.488E+01 -.215E+02 0.103E+03   -.942E-01 -.220E+00 -.437E+01
   0.140E+01 0.219E+02 -.572E+02   -.931E+00 -.206E+02 0.608E+02   -.388E+00 -.107E+01 -.347E+01
   0.269E+00 0.353E+02 -.965E+02   0.160E+00 -.345E+02 0.101E+03   -.379E+00 -.643E+00 -.435E+01
   0.188E+01 -.375E+03 0.154E+03   -.495E+01 0.368E+03 -.158E+03   0.249E+01 0.601E+01 0.337E+01
   0.405E+01 -.653E+02 0.977E+02   -.436E+01 0.646E+02 -.102E+03   0.263E+00 0.562E+00 0.445E+01
   0.422E+02 -.984E+02 0.920E+02   -.424E+02 0.101E+03 -.967E+02   0.170E+00 -.228E+01 0.432E+01
   0.106E+02 -.487E+02 0.903E+02   -.100E+02 0.484E+02 -.948E+02   -.492E+00 0.150E+00 0.432E+01
   -.761E+02 -.153E+03 0.937E+02   0.755E+02 0.160E+03 -.994E+02   0.734E+00 -.566E+01 0.529E+01
   -.141E+02 -.630E+02 0.931E+02   0.139E+02 0.624E+02 -.977E+02   0.189E+00 0.538E+00 0.430E+01
   -.334E+01 -.641E+02 0.236E+02   0.293E+01 0.618E+02 -.250E+02   0.348E+00 0.201E+01 0.136E+01
   0.242E+01 -.535E+02 0.421E+02   -.249E+01 0.515E+02 -.442E+02   0.685E-01 0.180E+01 0.193E+01
   0.571E+00 -.722E+02 0.276E+02   -.869E+00 0.705E+02 -.289E+02   0.236E+00 0.157E+01 0.126E+01
   -.111E+01 -.551E+02 0.424E+02   0.861E+00 0.532E+02 -.443E+02   0.201E+00 0.164E+01 0.181E+01
   -.686E+01 -.555E+02 0.180E+02   0.648E+01 0.533E+02 -.193E+02   0.357E+00 0.198E+01 0.125E+01
   -.442E+01 -.429E+02 0.394E+02   0.425E+01 0.409E+02 -.414E+02   0.144E+00 0.179E+01 0.185E+01
   -.322E+02 -.585E+01 0.921E+02   0.314E+02 0.738E+01 -.913E+02   0.670E+00 -.133E+01 -.104E+01
   -.306E+02 -.563E+02 -.117E+03   0.297E+02 0.584E+02 0.120E+03   0.776E+00 -.174E+01 -.214E+01
   0.429E+02 0.325E+02 0.504E+02   -.432E+02 -.300E+02 -.497E+02   0.134E+00 -.219E+01 -.829E+00
   0.328E+02 0.471E+01 -.105E+03   -.336E+02 -.827E+00 0.107E+03   0.633E+00 -.331E+01 -.138E+01
   -.225E+02 0.351E+02 0.263E+02   0.222E+02 -.330E+02 -.254E+02   0.328E+00 -.179E+01 -.107E+01
   -.203E+02 0.779E+01 -.761E+02   0.196E+02 -.530E+01 0.785E+02   0.636E+00 -.208E+01 -.213E+01
   0.109E+03 0.115E+03 0.161E+02   -.106E+03 -.114E+03 -.119E+02   -.308E+01 -.698E+00 -.422E+01
   0.113E+03 0.588E+02 -.219E+03   -.107E+03 -.586E+02 0.223E+03   -.534E+01 -.919E-01 -.315E+01
   -.166E+01 0.815E+02 -.508E+02   0.197E+00 -.813E+02 0.523E+02   0.126E+01 -.187E+00 -.171E+01
   -.955E+00 0.687E+02 -.140E+03   -.599E+00 -.670E+02 0.147E+03   0.131E+01 -.138E+01 -.651E+01
   -.128E+03 0.903E+02 0.544E+02   0.124E+03 -.904E+02 -.485E+02   0.341E+01 0.812E-02 -.564E+01
   -.127E+03 0.145E+02 -.230E+03   0.121E+03 -.161E+02 0.233E+03   0.578E+01 0.135E+01 -.266E+01
   0.175E+02 0.147E+03 0.668E+02   -.171E+02 -.145E+03 -.734E+02   -.283E+00 -.232E+01 0.618E+01
   0.113E+02 -.801E+01 0.535E+02   -.110E+02 0.826E+01 -.570E+02   -.291E+00 -.354E+00 0.339E+01
   0.410E+02 0.402E+01 0.786E+02   -.400E+02 -.648E+01 -.833E+02   -.101E+01 0.192E+01 0.435E+01
   0.303E+02 -.319E+02 0.670E+02   -.290E+02 0.306E+02 -.718E+02   -.116E+01 0.101E+01 0.457E+01
   -.537E+02 0.146E+02 0.839E+02   0.526E+02 -.161E+02 -.891E+02   0.901E+00 0.113E+01 0.485E+01
   -.473E+02 -.331E+02 0.619E+02   0.453E+02 0.319E+02 -.662E+02   0.177E+01 0.987E+00 0.419E+01
   -.502E+01 -.790E+02 0.391E+02   0.497E+01 0.729E+02 -.399E+02   0.606E-01 0.539E+01 0.821E+00
   0.249E+03 0.151E+03 -.232E+02   -.268E+03 -.153E+03 0.219E+02   0.175E+02 0.242E+01 0.102E+01
   0.250E+02 -.290E+02 0.293E+02   -.251E+02 0.278E+02 -.312E+02   0.562E-01 0.110E+01 0.178E+01
   -.851E+02 -.341E+02 0.209E+02   0.901E+02 0.283E+02 -.217E+02   -.430E+01 0.522E+01 0.734E+00
   -.192E+02 -.431E+02 0.275E+02   0.193E+02 0.409E+02 -.290E+02   -.141E+00 0.191E+01 0.144E+01
   0.936E+01 0.735E+02 -.146E+02   -.967E+01 -.706E+02 0.162E+02   0.270E+00 -.257E+01 -.159E+01
   0.301E+02 0.110E+03 -.594E+02   -.299E+02 -.109E+03 0.621E+02   -.195E+00 -.163E+01 -.235E+01
   0.223E+01 0.407E+02 -.181E+02   -.185E+01 -.399E+02 0.190E+02   -.360E+00 -.746E+00 -.984E+00
   -.525E+01 0.746E+02 -.561E+02   0.534E+01 -.727E+02 0.582E+02   -.109E+00 -.171E+01 -.189E+01
   -.313E+01 0.794E+02 -.110E+02   0.416E+01 -.753E+02 0.128E+02   -.899E+00 -.367E+01 -.173E+01
   -.213E+02 0.113E+03 -.608E+02   0.215E+02 -.112E+03 0.633E+02   -.139E+00 -.127E+01 -.221E+01
   0.247E+02 -.533E+01 0.112E+03   -.251E+02 0.112E+02 -.119E+03   0.333E+00 -.498E+01 0.670E+01
   0.226E+02 -.455E+02 -.583E+02   -.233E+02 0.530E+02 0.564E+02   0.622E+00 -.637E+01 0.156E+01
   0.955E+01 -.196E+02 0.423E+02   -.934E+01 0.280E+02 -.460E+02   -.168E+00 -.713E+01 0.317E+01
   0.944E+01 -.306E+02 -.125E+02   -.928E+01 0.386E+02 0.846E+01   -.126E+00 -.680E+01 0.337E+01
   -.323E+02 -.179E+02 0.675E+02   0.324E+02 0.237E+02 -.713E+02   -.123E+00 -.491E+01 0.325E+01
   -.232E+02 -.405E+02 -.209E+02   0.228E+02 0.465E+02 0.165E+02   0.299E+00 -.512E+01 0.366E+01
   0.961E+01 0.347E+02 -.252E+02   -.106E+02 -.428E+02 0.296E+02   0.800E+00 0.689E+01 -.371E+01
   0.302E+01 0.259E+02 -.125E+02   -.312E+01 -.331E+02 0.160E+02   0.869E-01 0.613E+01 -.296E+01
   0.156E+01 0.133E+02 -.180E+02   -.109E+01 -.199E+02 0.220E+02   -.390E+00 0.563E+01 -.335E+01
   0.626E+01 0.166E+02 -.124E+02   -.635E+01 -.235E+02 0.162E+02   0.780E-01 0.586E+01 -.325E+01
   -.705E+01 0.257E+02 -.189E+02   0.716E+01 -.333E+02 0.228E+02   -.104E+00 0.649E+01 -.331E+01
   -.778E+01 0.214E+02 -.132E+02   0.774E+01 -.286E+02 0.169E+02   0.316E-01 0.615E+01 -.319E+01
   -.214E+01 0.474E+02 0.407E+02   0.194E+01 -.474E+02 -.353E+02   0.192E+00 -.684E-01 -.463E+01
[...]
   -.971E+01 -.340E+02 -.686E+02   0.865E+01 0.314E+02 0.639E+02   0.887E+00 0.219E+01 0.395E+01
   0.231E+02 0.170E+03 0.490E+02   -.218E+02 -.182E+03 -.457E+02   -.112E+01 0.108E+02 -.287E+01
   0.109E+02 0.129E+03 0.619E+02   -.108E+02 -.142E+03 -.584E+02   -.449E-01 0.106E+02 -.296E+01
   -.297E+01 0.143E+03 0.561E+02   0.266E+01 -.156E+03 -.526E+02   0.278E+00 0.109E+02 -.297E+01
   -.336E+01 0.124E+03 0.644E+02   0.371E+01 -.136E+03 -.611E+02   -.296E+00 0.108E+02 -.283E+01
   -.225E+02 0.187E+03 0.477E+02   0.216E+02 -.201E+03 -.446E+02   0.737E+00 0.117E+02 -.261E+01
   -.115E+02 0.126E+03 0.616E+02   0.118E+02 -.139E+03 -.586E+02   -.232E+00 0.105E+02 -.262E+01
   -.260E+01 -.852E+02 -.267E+02   0.267E+01 0.953E+02 0.239E+02   -.576E-01 -.859E+01 0.242E+01
   0.223E+02 -.418E+02 -.186E+03   -.281E+02 0.546E+02 0.172E+03   0.467E+01 -.106E+02 0.120E+02
   0.130E+02 -.109E+03 -.494E+02   -.123E+02 0.122E+03 0.458E+02   -.622E+00 -.109E+02 0.313E+01
   0.170E+02 -.953E+02 -.130E+03   -.155E+02 0.108E+03 0.132E+03   -.108E+01 -.108E+02 -.195E+01
   -.105E+02 -.115E+03 -.514E+02   0.996E+01 0.128E+03 0.483E+02   0.478E+00 -.110E+02 0.260E+01
   -.324E+02 -.115E+03 -.109E+03   0.315E+02 0.128E+03 0.108E+03   0.766E+00 -.112E+02 0.478E+00
   -.122E+02 0.754E+02 -.187E+02   0.191E+02 -.904E+02 0.230E+02   -.549E+01 0.142E+02 -.405E+01
   -.214E+02 0.130E+02 -.117E+02   -.249E-12 -.284E-12 0.576E-12   0.194E+02 -.905E+01 0.920E+01

 POSITION                                       TOTAL-FORCE (eV/Angst)
      9.11817      7.62886     -1.75302        -0.027347      0.212627     -0.057761
      0.01634      6.29015     -7.42292        -0.006860      0.087527      0.027134
      3.03729      7.63306     -1.77382        -0.006914      0.099100     -0.037399
      3.06626      6.27824     -7.42509         0.002176      0.073877      0.032062
      6.08693      7.65420     -1.78655         0.037888      0.151965     -0.046990
      6.10980      6.28515     -7.42140         0.017407      0.090600      0.029863
      1.43010      9.29212     -3.85170        -0.296750     -0.083728     -0.032830
      1.53790      7.99527     -9.53622        -0.018150     -0.045388     -0.022060
      4.51840      9.45232     -3.87215        -0.000114      0.092169     -0.074198
      4.58880      7.98923     -9.53274         0.016516     -0.044589     -0.015192
      7.57922      9.43892     -3.88930         0.134409      0.371066     -0.146864
      7.64032      8.00007     -9.53897         0.013048     -0.048247     -0.019277
      1.52980      6.12266     -4.50118        -0.012532     -0.006502      0.038017
      1.53015      4.76282    -10.14060         0.003139     -0.022669     -0.004704
      4.59260      6.16311     -4.48774        -0.020229     -0.006964      0.025527
      4.58338      4.74773    -10.13511        -0.012227     -0.017499      0.003372
      7.63422      6.17716     -4.49012         0.009554      0.001614      0.029630
      7.62756      4.77243    -10.14119        -0.004774     -0.016600     -0.010739
      0.01920     10.88646     -1.18141        -0.011985      0.040318     -0.268927
      0.00796      9.49333     -6.79785        -0.024016      0.146370      0.191544
      3.07073     10.87797     -1.16486        -0.073639      0.096757     -0.153382
      3.05829      9.49954     -6.80997        -0.077340      0.180869      0.081684
      6.09776     10.86776     -1.14796         0.050488      0.076006     -0.120105
      6.09175      9.48419     -6.79541         0.041065      0.123597      0.065120
      1.58779      1.50344     -1.78548         0.092788     -0.058457     -0.222070
      1.59243      0.13417     -7.40826         0.095761      0.041190      0.328008
      4.59189      1.53065     -1.77492        -0.094871      0.023361     -0.207343
      4.61454      0.13993     -7.41091        -0.096468      0.133081      0.251511
      7.58851      1.46978     -1.76660        -0.062919     -0.047299     -0.094127
      7.63509      0.10854     -7.33245        -0.037626     -0.023176      0.222689
      0.03131      3.20408     -3.93035         0.052967     -0.219787     -0.076892
      0.01270      1.84479     -9.49311         0.022066     -0.087751      0.072109
      3.09060      3.24528     -3.88099         0.001856     -0.299610     -0.034518
      3.06813      1.83143     -9.54091         0.030191     -0.129026      0.045844
      6.12391      3.22828     -3.88957        -0.029516     -0.202493     -0.039695
      6.11376      1.82844     -9.52297        -0.071632     -0.117344      0.036968
      0.01635     -1.34654    -10.14211         0.008401     -0.132621      0.028876
      2.84849      0.10369     -4.52769        -0.195464      0.315602     -0.113898
      3.07069     -1.37117    -10.14238        -0.004483      0.004930      0.007049
      6.07378     -0.01817     -4.46585         0.280447     -0.198142      0.027438
      6.10794     -1.36394    -10.12756         0.013934     -0.030076      0.019004
      1.51591      4.70065     -1.15251        -0.004115      0.005333     -0.059283
      1.55497      3.37815     -6.82093         0.006811     -0.078428      0.092364
      4.58792      4.74490     -1.15470        -0.000090     -0.049525     -0.068324
      4.59795      3.34525     -6.81675        -0.011055     -0.039640      0.041638
      7.63240      4.68078     -1.15579         0.031055      0.049303     -0.046841
      7.64087      3.38200     -6.80675         0.017874     -0.064984      0.063060
      1.55233     11.85490     -1.56950         0.046772     -0.165563      0.381607
      1.53436     10.51321     -7.03775         0.050534     -0.274820     -0.014329
      4.58742     11.89076     -1.41909         0.007123     -0.261631      0.171336
      4.57899     10.49825     -7.09445         0.009331     -0.267061      0.101827
      7.62228     11.86628     -1.43290        -0.037581     -0.154955      0.201426
      7.62276     10.48289     -7.08654        -0.035617     -0.208323      0.083920
      9.14190      5.14048     -4.21419         0.026815      0.253393     -0.155855
      0.00416      3.75573     -9.85519         0.003711      0.209561     -0.125769
      3.06830      5.15093     -4.20361        -0.002236      0.204898     -0.135234
      3.04966      3.74676     -9.85576         0.009804      0.199431     -0.136207
      6.11860      5.15527     -4.20579        -0.012261      0.232139     -0.138161
      6.11771      3.74648     -9.85272        -0.007755      0.212427     -0.130678
      1.50969      7.44091     -3.16453         0.032187     -0.051980     -0.125971
[...]
      7.69904      3.33183     -2.49075        -0.043481      0.089561      0.194232
      7.68326      1.98671     -8.05910         0.010135      0.103161      0.058223
      1.56625      2.88207     -5.05227        -0.039963      0.543476     -0.122080
      1.51698      1.42387    -10.67418         0.001574      0.460029     -0.094168
      4.60518      2.86067     -5.04474         0.024881      0.496026     -0.111883
      4.59190      1.45044    -10.69249        -0.011228      0.455558     -0.086316
      7.64507      2.84925     -5.04709        -0.010500      0.538134     -0.104766
      7.64686      1.41860    -10.66711        -0.018436      0.451094     -0.084984
      0.02074      1.82331     -0.66924        -0.007544     -0.320512      0.141188
      0.11173      0.32929     -5.96493        -0.051020     -0.221058     -0.127508
      3.06575      1.91856     -0.60123        -0.014680     -0.426478      0.158279
      3.11156      0.60399     -6.32300         0.166402     -0.407837     -0.400043
      6.10713      1.91912     -0.59769         0.009867     -0.428474      0.114714
      6.11689      0.53478     -6.23939        -0.008331     -0.435874     -0.126317
      0.43629     -0.19983     -4.42243         1.213020      0.041874     -0.016950
    total drift:                               -0.093193     -0.078121      0.025771

  FREE ENERGIE OF THE ION-ELECTRON SYSTEM (eV)
  free  energy   TOTEN  =      -976.87720673 eV

  energy  without entropy=     -976.87720673  energy(sigma->0) =     -976.87720673

 writing wavefunctions