 vasp.6.4.2 20Jul23 (build Nov 12 2023 22:16:35) complex
 executed on              LinuxNV date 2025.03.21  23:10:40
 OpenACC runtime initialized ...    4 GPUs detected

 INCAR:
   PREC = Normal
   ENCUT = 450
   NELM = 500
   IBRION = -1
   ISPIN = 1
   NSW = 0
   ISIF = 2
   EDIFF = 1E-5
   EDIFFG = -5E-3
   ISTART = 0
   ICHARG = 0
   ISMEAR = 0
   SIGMA = 0.05
   LWAVE = .T.
   LCHARG = .T.
   LREAL = Auto
   LPLANE = .TRUE.
   NPAR = 1
   KPAR = 4
   NCORE = 1
   ALGO = All
   LHFCALC = .TRUE.
   HSE06 = .TRUE.
   HFSCREEN = 0.2
   TIME = 0.4
   AEXX = 0.32
   LMAXFOCK = 4
   PRECFOCK = Fast
   NELECT = 1044

 POTCAR:    PAW_PBE Ga_d 06Jul2010
 POTCAR:    PAW_PBE O 08Apr2002
 POTCAR:    PAW_PBE Ga_d 06Jul2010
   VRHFIN =Ga: s2p1

   TITEL  = PAW_PBE Ga_d 06Jul2010
   POMASS =   69.723; ZVAL   =   13.000    mass and valenz
   ENMAX  =  282.691; ENMIN  =  212.018 eV

   TITEL  = PAW_PBE O 08Apr2002
   POMASS =   16.000; ZVAL   =    6.000    mass and valenz
   ENMAX  =  400.000; ENMIN  =  300.000 eV

 Optimization of the real space projectors (new method)

 maximal supplied QI-value         = 16.25
 optimisation between [QCUT,QGAM] = [ 10.73, 21.61] = [ 32.22,130.83] Ry
 Optimized for a Real-space Cutoff    1.42 Angstroem

   l    n(q)    QCUT    max X(q) W(low)/X(q) W(high)/X(q)  e(spline)
   2      8    10.726     7.143    0.22E-03    0.16E-03    0.73E-07
   2      8    10.726     5.586    0.40E-03    0.26E-03    0.10E-06
   0      9    10.726    12.382    0.25E-04    0.21E-05    0.37E-07
   0      9    10.726     6.622    0.42E-04    0.48E-05    0.77E-07
   1      9    10.726     7.935    0.27E-03    0.13E-04    0.16E-06
   1      9    10.726     2.425    0.23E-03    0.15E-04    0.14E-06
 Optimization of the real space projectors (new method)

 maximal supplied QI-value         = 24.76
 optimisation between [QCUT,QGAM] = [ 10.64, 21.54] = [ 31.73,129.89] Ry
 Optimized for a Real-space Cutoff    1.23 Angstroem

   l    n(q)    QCUT    max X(q) W(low)/X(q) W(high)/X(q)  e(spline)
   0      8    10.645    20.381    0.38E-03    0.60E-03    0.15E-06
   0      8    10.645    15.268    0.40E-03    0.65E-03    0.17E-06
   1      7    10.645     5.964    0.30E-03    0.63E-03    0.18E-06
   1      7    10.645     5.382    0.24E-03    0.53E-03    0.16E-06
  PAW_PBE Ga_d 06Jul2010                :
  PAW_PBE O 08Apr2002                   :

 POSCAR: Ga48 O72
  positions in direct lattice
  velocities in cartesian coordinates
 exchange correlation table for  LEXCH =        8
   RHO(1)=    0.500       N(1)  =     2000
   RHO(2)=  100.500       N(2)  =     4000

 ion  position               nearest neighbor table
   1  0.660  1.000  0.157-  84 1.94  78 1.96  82 1.96  66 2.01  64 2.07  60 2.07
   2  0.659  0.000  0.657-  85 1.94  83 1.95  79 1.95  67 2.02  65 2.08  61 2.09
   3  0.659  0.333  0.157-  86 1.94  80 1.96  78 1.96  68 1.99  62 2.07  60 2.07
   4  0.660  0.333  0.657-  87 1.94  81 1.95  79 1.95  69 2.02  63 2.08  61 2.08
   5  0.660  0.667  0.157-  88 1.94  80 1.96  82 1.96  70 2.01  64 2.07  62 2.07
   6  0.659  0.667  0.657-  89 1.94  83 1.95  81 1.95  71 2.02  65 2.08  63 2.09
   7  0.844  0.168  0.344-  90 1.88  74 1.96  72 1.98  60 2.05  68 2.08  66 2.11
   8  0.841  0.167  0.844-  91 1.94  73 1.95  75 1.95  61 2.02  69 2.08  67 2.09
   9  0.844  0.499  0.344-  92 1.88  74 1.96  76 1.98  62 2.05  68 2.08  70 2.11
  10  0.841  0.499  0.844-  93 1.94  77 1.95  75 1.95  63 2.02  69 2.08  71 2.09
  11  0.844  0.833  0.343-  94 1.93  72 1.96  76 1.96  64 2.05  66 2.07  70 2.07
  12  0.842  0.833  0.843-  95 1.94  73 1.95  77 1.95  65 2.03  67 2.07  71 2.07
  13  0.590  0.168  0.397-  54 1.85  56 1.85  79 1.85  60 1.88
  14  0.590  0.167  0.898-  78 1.84  57 1.85  55 1.85  61 1.88
  15  0.590  0.499  0.397-  58 1.85  56 1.85  81 1.85  62 1.88
  16  0.590  0.500  0.898-  80 1.84  57 1.85  59 1.85  63 1.88
  17  0.594  0.833  0.398-  83 1.84  54 1.84  58 1.84  64 1.87
  18  0.590  0.833  0.897-  82 1.84  55 1.85  59 1.85  65 1.87
  19  0.909  0.999  0.103-  73 1.84  52 1.84  48 1.84  66 1.86
  20  0.908  1.000  0.602-  72 1.84  53 1.84  49 1.85  67 1.88
  21  0.912  0.333  0.108-  50 1.84  48 1.84  68 1.86  75 1.86
  22  0.909  0.333  0.600-  74 1.84  51 1.84  49 1.84  69 1.89
  23  0.909  0.667  0.103-  77 1.84  52 1.84  50 1.84  70 1.86
  24  0.908  0.667  0.602-  76 1.84  53 1.84  51 1.85  71 1.88
  25  0.161  0.169  0.162-  48 1.96  98 1.96 114 1.98 116 1.99 102 2.03  96 2.07
  26  0.158  0.169  0.650- 117 1.90 115 1.94  49 1.95 103 2.05  99 2.12  97 2.13
  27  0.161  0.498  0.162-  50 1.96  98 1.96 118 1.98 116 1.99 104 2.03 100 2.07
  28  0.158  0.498  0.650- 117 1.90 119 1.94  51 1.95 105 2.05  99 2.12 101 2.13
  29  0.159  0.833  0.158-  52 1.95 114 1.96 118 1.96 106 2.03  96 2.06 100 2.06
  30  0.158  0.833  0.654- 115 1.94 119 1.94  53 1.94 107 2.03  97 2.09 101 2.09
  31  0.342  1.000  0.343- 108 1.94 112 1.95  54 1.95  96 2.02 102 2.05 106 2.07
  32  0.339  0.000  0.842- 109 1.95  55 1.95 113 1.96  97 2.01 103 2.07 107 2.08
  33  0.334  0.333  0.346-  98 1.93 110 1.94 108 1.94  56 2.00 104 2.14 102 2.14
  34  0.339  0.333  0.843- 111 1.95 109 1.95  57 1.96  99 2.00 105 2.07 103 2.07
  35  0.342  0.667  0.343- 110 1.94 112 1.95  58 1.95 100 2.02 104 2.05 106 2.07
  36  0.339  0.667  0.842- 111 1.95  59 1.95 113 1.96 101 2.01 105 2.07 107 2.08
  37  0.089  0.009  0.396-  90 1.82 115 1.85  96 1.88  94 1.88
  38  0.092  0.000  0.898- 114 1.84  91 1.85  95 1.85  97 1.87
  39  0.090  0.333  0.897- 116 1.83  93 1.85  91 1.85  99 1.86
  40  0.089  0.658  0.396-  92 1.82 119 1.85 100 1.88  94 1.88
  41  0.092  0.667  0.898- 118 1.84  93 1.85  95 1.85 101 1.87
  42  0.409  0.166  0.102- 109 1.84  86 1.85  84 1.85 102 1.86
  43  0.410  0.167  0.603- 108 1.83  87 1.85  85 1.85 103 1.87
  44  0.409  0.500  0.102- 111 1.84  86 1.85  88 1.85 104 1.86
  45  0.410  0.500  0.603- 110 1.83  87 1.85  89 1.85 105 1.87
  46  0.409  0.833  0.102- 113 1.84  84 1.85  88 1.85 106 1.87
  47  0.409  0.833  0.602- 112 1.83  85 1.85  89 1.85 107 1.87
  48  0.997  0.165  0.130-  21 1.84  19 1.84  25 1.96
  49  0.995  0.166  0.626-  22 1.84  20 1.85  26 1.95
  50  0.997  0.502  0.130-  21 1.84  23 1.84  27 1.96
  51  0.995  0.501  0.626-  22 1.84  24 1.85  28 1.95
  52  0.996  0.833  0.127-  19 1.84  23 1.84  29 1.95
  53  0.995  0.833  0.628-  20 1.84  24 1.84  30 1.94
  54  0.505  0.999  0.373-  17 1.84  13 1.85  31 1.95
  55  0.502  1.000  0.872-  14 1.85  18 1.85  32 1.95
  56  0.501  0.333  0.373-  15 1.85  13 1.85  33 2.00
  57  0.502  0.333  0.873-  16 1.85  14 1.85  34 1.96
  58  0.505  0.668  0.373-  17 1.84  15 1.85  35 1.95
  59  0.502  0.667  0.872-  16 1.85  18 1.85  36 1.95
  60  0.673  0.166  0.280-  13 1.88   7 2.05   1 2.07   3 2.07
[...]
 105  0.328  0.500  0.720-  45 1.87  28 2.05  36 2.07  34 2.07
 106  0.328  0.833  0.219-  46 1.87  29 2.03  31 2.07  35 2.07
 107  0.327  0.833  0.719-  47 1.87  30 2.03  32 2.08  36 2.08
 108  0.335  0.164  0.447-  43 1.83  33 1.94  31 1.94
 109  0.332  0.166  0.946-  42 1.84  32 1.95  34 1.95
 110  0.335  0.502  0.447-  45 1.83  33 1.94  35 1.94
 111  0.332  0.500  0.946-  44 1.84  36 1.95  34 1.95
 112  0.335  0.833  0.446-  47 1.83  31 1.95  35 1.95
 113  0.331  0.833  0.945-  46 1.84  32 1.96  36 1.96
 114  0.167  0.001  0.056-  38 1.84  29 1.96  25 1.98
 115  0.167  1.000  0.553-  37 1.85  26 1.94  30 1.94
 116  0.169  0.333  0.052-  39 1.83  27 1.99  25 1.99
 117  0.171  0.333  0.555-  28 1.90  26 1.90
 118  0.167  0.666  0.056-  41 1.84  29 1.96  27 1.98
 119  0.167  0.667  0.553-  40 1.85  28 1.94  30 1.94

  LATTYP: Found a simple monoclinic cell.
 ALAT       =    11.6348202465
 B/A-ratio  =     0.7858051831
 C/A-ratio  =     1.0554931797
 COS(beta)  =    -0.2379290539

  Lattice vectors:

 A1 = (   0.0000000000,  -2.7682617730, -11.3006977184)
 A2 = (  -9.1427020537,   0.0000000000,   0.0000000000)
 A3 = (   0.0000000000,  12.2804734172,   0.0000000000)

Analysis of symmetry for initial positions (statically):
 Subroutine PRICEL returns:
 Original cell was already a primitive cell.

 Routine SETGRP: Setting up the symmetry group for a
 simple monoclinic supercell.

 Subroutine GETGRP returns: Found  2 space group operations
 (whereof  1 operations were pure point group operations)
 out of a pool of  4 trial point group operations.

The static configuration has the point symmetry C_1 .
 The point group associated with its full space group is C_1h.

Analysis of symmetry for dynamics (positions and initial velocities):
 Subroutine PRICEL returns:
 Original cell was already a primitive cell.

 Routine SETGRP: Setting up the symmetry group for a
 simple monoclinic supercell.

 Subroutine GETGRP returns: Found  2 space group operations
 (whereof  1 operations were pure point group operations)
 out of a pool of  4 trial point group operations.

The dynamic configuration has the point symmetry C_1 .
 The point group associated with its full space group is C_1h.

 Subroutine INISYM returns: Found  2 space group operations
 (whereof  1 operations are pure point group operations),
 and found     1 'primitive' translations

                                     Primitive cell

  volume of cell :    1268.8052

  direct lattice vectors                    reciprocal lattice vectors
     0.000000000 12.280473417  0.000000000     0.000000000  0.081430085 -0.019947423
     9.142702054  0.000000000  0.000000000     0.109376855 -0.000000000  0.000000000
     0.000000000 -2.768261773-11.300697718     0.000000000  0.000000000 -0.088490111

  length of vectors
    12.280473417  9.142702054 11.634820246     0.083837691  0.109376855  0.088490111

  position of ions in fractional coordinates (direct lattice)
     0.659505640  0.999870604  0.157327822
     0.659201661  0.000121260  0.657154834
     0.659155643  0.333333333  0.157091176
     0.659756023  0.333333333  0.656825068
     0.659505640  0.666796062  0.157327822
     0.659201661  0.666545407  0.657154834
     0.843687693  0.167720901  0.344452465
     0.841247122  0.167365675  0.844480563
     0.843687693  0.498945766  0.344452465
     0.841247122  0.499300992  0.844480563
     0.844136492  0.833333333  0.343291507
     0.841685085  0.833333333  0.843488668
     0.590200577  0.167947835  0.396952542
     0.589784466  0.166663008  0.897614096
     0.590200577  0.498718832  0.396952542
     0.589784466  0.500003659  0.897614096
     0.593544751  0.833333333  0.397940287
     0.590227822  0.833333333  0.897444968
     0.908683480  0.999188053  0.102573496
     0.907607167  0.999529092  0.601542966
     0.911642116  0.333333333  0.107800098
     0.908968633  0.333333333  0.599688656
     0.908683480  0.667478613  0.102573496
     0.907607167  0.667137575  0.601542966
     0.160755260  0.169021731  0.161639834
     0.157591954  0.168894638  0.650025639
     0.160755260  0.497644935  0.161639834
     0.157591954  0.497772029  0.650025639
     0.159259781  0.833333333  0.158455459
     0.157662317  0.833333333  0.654314696
     0.342224496  0.999670843  0.343137678
     0.338985648  0.000091870  0.842066405
     0.334232142  0.333333333  0.346397789
     0.338685613  0.333333333  0.842651369
[...]
     52     -17.1571      2.00000
     53     -17.1456      2.00000
     54     -17.1217      2.00000
     55     -17.1148      2.00000
     56     -17.1087      2.00000
     57     -17.1007      2.00000
     58     -17.0923      2.00000
     59     -17.0835      2.00000
     60     -17.0457      2.00000
[...]
    612      15.0566      0.00000
    613      15.1388      0.00000
    614      15.1797      0.00000
    615      15.3577      0.00000
    616      15.3886      0.00000
    617      15.4327      0.00000
    618      15.5681      0.00000
    619      15.5943      0.00000
    620      15.6293      0.00000
    621      15.7803      0.00000
    622      15.8542      0.00000
    623      15.9024      0.00000
    624      16.1099      0.00000
    625      16.3614      0.00000
    626      16.5128      0.00000

 soft charge-density along one line, spin component            1
         0         1         2         3         4         5         6         7         8         9
 total charge-density along one line

------------------------ aborting loop because EDIFF is reached ----------------------------------------

  FORCE on cell =-STRESS in cart. coord.  units (eV):
  Direction    XX          YY          ZZ          XY          YZ          ZX
  Alpha Z  5383.97153  5383.97153  5383.97153
  Ewald  -24310.84899-31550.14230-30727.44623     0.00000 -1872.63797     0.00000
  Hartree 14245.02989  9633.85591 10192.11901     0.00084 -1282.88360    -0.00068
  E(xc)   -4050.31081 -4053.28922 -4052.64864    -0.00002    -0.51192    -0.00001
  Local   -6630.82985  5073.82450  3683.92369     0.05598  3118.94587    -0.01264
  n-local  5830.05150  5776.42513  5795.43546     0.01514    -8.49526    -0.00479
  augment  5409.34704  5430.00020  5434.25130    -0.00676     6.24043     0.00156
  Kinetic 12387.80142 12578.39435 12555.95429    -0.09330    41.56072     0.02844
  Fock    -8296.92722 -8300.20497 -8293.80912     0.00792    -0.05113    -0.00203
  Total     -32.71549   -27.16488   -28.24870     0.00000     2.16714     0.00000
  in kB     -41.31132   -34.30231   -35.67091     0.00000     2.73655     0.00000

 VOLUME and BASIS-vectors are now :
  energy-cutoff  :      450.00
  volume of cell :     1268.81
      direct lattice vectors                 reciprocal lattice vectors
     0.000000000 12.280473417  0.000000000     0.000000000  0.081430085 -0.019947423
     9.142702054  0.000000000  0.000000000     0.109376855 -0.000000000  0.000000000
     0.000000000 -2.768261773-11.300697718     0.000000000  0.000000000 -0.088490111

  length of vectors
    12.280473417  9.142702054 11.634820246     0.083837691  0.109376855  0.088490111

 FORCES acting on ions:
    Electron-Ion                     Ewald-Force                    Non-Local-Force
   -.156E+02 0.215E+02 -.664E+02   0.155E+02 -.209E+02 0.702E+02   0.601E-01 -.493E+00 -.362E+01
   -.112E+02 0.355E+02 -.895E+02   0.111E+02 -.350E+02 0.942E+02   0.136E+00 -.373E+00 -.444E+01
   0.209E-02 0.109E+02 -.616E+02   -.561E-10 -.989E+01 0.654E+02   0.000E+00 -.874E+00 -.358E+01
   0.133E-02 0.276E+02 -.920E+02   -.262E-10 -.271E+02 0.967E+02   0.000E+00 -.440E+00 -.450E+01
   0.156E+02 0.215E+02 -.664E+02   -.155E+02 -.209E+02 0.702E+02   -.601E-01 -.493E+00 -.362E+01
   0.112E+02 0.355E+02 -.895E+02   -.111E+02 -.350E+02 0.942E+02   -.136E+00 -.373E+00 -.444E+01
   -.606E+02 -.180E+03 0.115E+03   0.610E+02 0.183E+03 -.120E+03   -.345E+00 -.412E+01 0.471E+01
   -.134E+02 -.662E+02 0.922E+02   0.135E+02 0.663E+02 -.970E+02   -.595E-01 -.447E-01 0.456E+01
   0.606E+02 -.179E+03 0.115E+03   -.610E+02 0.183E+03 -.120E+03   0.345E+00 -.412E+01 0.471E+01
   0.134E+02 -.662E+02 0.922E+02   -.135E+02 0.663E+02 -.970E+02   0.595E-01 -.447E-01 0.456E+01
   -.129E-01 -.107E+03 0.982E+02   -.522E-10 0.108E+03 -.103E+03   0.000E+00 -.907E+00 0.424E+01
   -.144E-02 -.685E+02 0.870E+02   -.560E-10 0.681E+02 -.916E+02   0.000E+00 0.199E+00 0.431E+01
   -.161E+02 -.434E+02 0.275E+02   0.159E+02 0.407E+02 -.286E+02   0.118E+00 0.243E+01 0.107E+01
   -.693E+01 -.502E+02 0.290E+02   0.702E+01 0.483E+02 -.311E+02   -.748E-01 0.170E+01 0.201E+01
   0.161E+02 -.434E+02 0.275E+02   -.159E+02 0.407E+02 -.286E+02   -.118E+00 0.243E+01 0.107E+01
   0.693E+01 -.502E+02 0.290E+02   -.702E+01 0.483E+02 -.311E+02   0.748E-01 0.170E+01 0.201E+01
   -.697E-03 -.466E+02 0.332E+02   -.639E-11 0.439E+02 -.342E+02   0.000E+00 0.241E+01 0.997E+00
   0.643E-04 -.448E+02 0.285E+02   -.550E-10 0.430E+02 -.306E+02   0.000E+00 0.161E+01 0.194E+01
   -.383E+02 0.669E+01 0.167E+02   0.384E+02 -.440E+01 -.153E+02   0.497E-01 -.197E+01 -.126E+01
   -.347E+02 -.168E+02 -.573E+02   0.346E+02 0.188E+02 0.592E+02   0.935E-01 -.179E+01 -.184E+01
   -.739E-03 -.301E+02 0.836E+02   -.362E-10 0.320E+02 -.828E+02   0.000E+00 -.159E+01 -.750E+00
   0.359E-02 -.776E+02 -.988E+02   -.619E-10 0.795E+02 0.101E+03   0.000E+00 -.171E+01 -.224E+01
   0.383E+02 0.669E+01 0.167E+02   -.384E+02 -.440E+01 -.153E+02   -.497E-01 -.197E+01 -.126E+01
   0.347E+02 -.168E+02 -.573E+02   -.346E+02 0.188E+02 0.592E+02   -.935E-01 -.179E+01 -.184E+01
   -.384E+02 0.121E+03 0.536E+01   0.420E+02 -.121E+03 -.536E+01   -.332E+01 -.230E+00 0.461E-01
   -.629E+02 0.562E+02 -.225E+03   0.645E+02 -.554E+02 0.232E+03   -.187E+01 -.896E+00 -.699E+01
   0.384E+02 0.121E+03 0.536E+01   -.420E+02 -.121E+03 -.536E+01   0.332E+01 -.230E+00 0.461E-01
   0.629E+02 0.562E+02 -.225E+03   -.645E+02 -.554E+02 0.232E+03   0.187E+01 -.896E+00 -.699E+01
   -.136E-02 0.703E+02 -.474E+02   -.411E-10 -.700E+02 0.513E+02   0.000E+00 -.237E+00 -.370E+01
   -.209E-02 0.478E+02 -.134E+03   -.187E-10 -.474E+02 0.139E+03   0.000E+00 -.320E+00 -.472E+01
   -.307E+02 0.358E+02 0.995E+02   0.315E+02 -.364E+02 -.104E+03   -.645E+00 0.452E+00 0.386E+01
   -.934E+01 -.125E+02 0.563E+02   0.948E+01 0.112E+02 -.606E+02   -.153E+00 0.108E+01 0.402E+01
   -.844E-03 0.131E+03 0.134E+03   -.217E-10 -.137E+03 -.137E+03   0.000E+00 0.577E+01 0.295E+01
   -.577E-03 -.418E+01 0.464E+02   -.467E-10 0.294E+01 -.510E+02   0.000E+00 0.113E+01 0.420E+01
   0.307E+02 0.358E+02 0.995E+02   -.315E+02 -.364E+02 -.104E+03   0.645E+00 0.452E+00 0.386E+01
   0.934E+01 -.125E+02 0.563E+02   -.948E+01 0.112E+02 -.606E+02   0.153E+00 0.108E+01 0.402E+01
   -.165E+03 -.579E+02 0.367E+02   0.167E+03 0.550E+02 -.376E+02   -.177E+01 0.308E+01 0.839E+00
   -.167E+02 -.507E+02 0.286E+02   0.168E+02 0.486E+02 -.306E+02   -.539E-01 0.187E+01 0.194E+01
   0.767E-03 -.373E+02 0.266E+02   -.166E-10 0.364E+02 -.294E+02   0.000E+00 0.691E+00 0.253E+01
   0.165E+03 -.579E+02 0.367E+02   -.167E+03 0.550E+02 -.376E+02   0.177E+01 0.308E+01 0.839E+00
   0.167E+02 -.507E+02 0.286E+02   -.168E+02 0.486E+02 -.306E+02   0.539E-01 0.187E+01 0.194E+01
   -.178E+02 0.797E+02 -.192E+02   0.175E+02 -.785E+02 0.198E+02   0.238E+00 -.107E+01 -.605E+00
   -.257E+02 0.123E+03 -.797E+02   0.255E+02 -.121E+03 0.823E+02   0.107E+00 -.177E+01 -.243E+01
   0.178E+02 0.797E+02 -.192E+02   -.175E+02 -.785E+02 0.198E+02   -.238E+00 -.107E+01 -.605E+00
   0.257E+02 0.123E+03 -.797E+02   -.255E+02 -.121E+03 0.823E+02   -.107E+00 -.177E+01 -.243E+01
   -.121E-03 0.740E+02 -.261E+02   -.284E-10 -.719E+02 0.273E+02   0.000E+00 -.186E+01 -.117E+01
   -.137E-03 0.964E+02 -.595E+02   -.110E-10 -.944E+02 0.618E+02   0.000E+00 -.182E+01 -.212E+01
   -.265E+02 -.365E+02 0.706E+02   0.263E+02 0.450E+02 -.748E+02   0.186E+00 -.734E+01 0.357E+01
   -.257E+02 -.597E+02 -.238E+02   0.254E+02 0.672E+02 0.193E+02   0.295E+00 -.637E+01 0.389E+01
   0.265E+02 -.365E+02 0.706E+02   -.263E+02 0.450E+02 -.748E+02   -.186E+00 -.734E+01 0.357E+01
   0.257E+02 -.597E+02 -.238E+02   -.254E+02 0.672E+02 0.193E+02   -.295E+00 -.637E+01 0.389E+01
   -.112E-02 -.324E+02 0.355E+02   -.317E-10 0.404E+02 -.390E+02   0.000E+00 -.694E+01 0.299E+01
   -.172E-02 -.393E+02 0.398E+01   -.328E-10 0.467E+02 -.853E+01   0.000E+00 -.636E+01 0.395E+01
   -.392E+01 0.308E+02 -.131E+02   0.374E+01 -.385E+02 0.168E+02   0.154E+00 0.664E+01 -.321E+01
   -.186E+01 0.258E+02 -.189E+02   0.179E+01 -.335E+02 0.228E+02   0.642E-01 0.661E+01 -.329E+01
   0.205E-03 0.544E+02 -.201E+02   -.239E-11 -.646E+02 0.246E+02   0.000E+00 0.877E+01 -.380E+01
   0.115E-03 0.264E+02 -.198E+02   -.379E-10 -.343E+02 0.236E+02   0.000E+00 0.675E+01 -.326E+01
   0.392E+01 0.308E+02 -.131E+02   -.374E+01 -.385E+02 0.168E+02   -.154E+00 0.664E+01 -.321E+01
   0.186E+01 0.258E+02 -.189E+02   -.179E+01 -.335E+02 0.228E+02   -.642E-01 0.661E+01 -.329E+01
   -.494E+01 0.416E+02 0.487E+02   0.486E+01 -.387E+02 -.447E+02   0.638E-01 -.251E+01 -.339E+01
[...]
   -.224E-03 -.424E+02 -.311E+02   -.488E-11 0.401E+02 0.264E+02   0.000E+00 0.198E+01 0.404E+01
   -.225E-04 -.460E+02 -.573E+02   -.190E-10 0.436E+02 0.528E+02   0.000E+00 0.199E+01 0.390E+01
   -.290E+02 0.190E+03 0.468E+02   0.284E+02 -.202E+03 -.430E+02   0.503E+00 0.105E+02 -.334E+01
   -.380E+01 0.133E+03 0.596E+02   0.385E+01 -.145E+03 -.565E+02   -.368E-01 0.106E+02 -.264E+01
   0.290E+02 0.190E+03 0.468E+02   -.284E+02 -.202E+03 -.430E+02   -.503E+00 0.105E+02 -.334E+01
   0.380E+01 0.133E+03 0.596E+02   -.385E+01 -.145E+03 -.565E+02   0.368E-01 0.106E+02 -.264E+01
   -.310E-03 0.153E+03 0.567E+02   -.678E-11 -.165E+03 -.527E+02   0.000E+00 0.107E+02 -.346E+01
   -.874E-04 0.132E+03 0.600E+02   -.202E-10 -.144E+03 -.566E+02   0.000E+00 0.107E+02 -.288E+01
   -.158E+02 -.103E+03 -.456E+02   0.168E+02 0.114E+03 0.410E+02   -.878E+00 -.999E+01 0.396E+01
   -.308E+02 -.111E+03 -.105E+03   0.296E+02 0.124E+03 0.103E+03   0.108E+01 -.111E+02 0.176E+01
   -.219E-03 -.101E+03 -.326E+02   -.234E-10 0.114E+03 0.274E+02   0.000E+00 -.109E+02 0.454E+01
   -.120E-03 -.431E+02 -.354E+03   -.374E-11 0.540E+02 0.374E+03   0.000E+00 -.920E+01 -.172E+02
   0.158E+02 -.103E+03 -.456E+02   -.168E+02 0.114E+03 0.410E+02   0.878E+00 -.999E+01 0.396E+01
   0.308E+02 -.111E+03 -.105E+03   -.296E+02 0.124E+03 0.103E+03   -.108E+01 -.111E+02 0.176E+01
   -.101E+00 0.114E+02 -.626E+01   -.313E-12 0.117E-11 -.213E-12   -.133E-14 -.952E+01 0.534E+01

 POSITION                                       TOTAL-FORCE (eV/Angst)
      9.14152      7.66352     -1.77791        -0.001516      0.040045      0.023194
      0.00111      6.27613     -7.42631        -0.003059      0.078488      0.007388
      3.04757      7.65987     -1.77524        -0.000000      0.053688      0.024191
      3.04757      6.28385     -7.42258        -0.000000      0.081989      0.003549
      6.09632      7.66352     -1.77791         0.001516      0.040045      0.023194
      6.09403      6.27613     -7.42631         0.003059      0.078488      0.007388
      1.53342      9.40735     -3.89255         0.046452     -0.307520      0.036762
      1.53017      7.99317     -9.54322         0.012254     -0.010718     -0.058972
      4.56171      9.40735     -3.89255        -0.046452     -0.307520      0.036762
      4.56496      7.99317     -9.54322        -0.012254     -0.010718     -0.058972
      7.61892      9.41607     -3.87943        -0.000000     -0.162202      0.010081
      7.61892      8.00129     -9.53201        -0.000000     -0.065436     -0.034407
      1.53550      6.14907     -4.48584        -0.017354     -0.050438      0.011792
      1.52375      4.75800    -10.14367         0.004565     -0.009747     -0.005096
      4.55964      6.14907     -4.48584         0.017354     -0.050438      0.011792
      4.57138      4.75800    -10.14367        -0.004565     -0.009747     -0.005096
      7.61892      6.18741     -4.49700        -0.000000     -0.054134      0.023816
      7.61892      4.76391    -10.14175        -0.000000     -0.013810      0.000151
      9.13528     10.87511     -1.15915         0.066311      0.099441      0.042801
      9.13840      9.48062     -6.79786         0.007716     -0.000264     -0.076267
      3.04757     10.89698     -1.21822        -0.000000      0.143728      0.025557
      3.04757      9.50247     -6.77690        -0.000000     -0.020900     -0.081175
      6.10256     10.87511     -1.15915        -0.066311      0.099441      0.042801
      6.09944      9.48062     -6.79786        -0.007716     -0.000264     -0.076267
      1.54532      1.52669     -1.82664         0.081616      0.005808      0.050924
      1.54415      0.13586     -7.34574        -0.341786     -0.110897     -0.192226
      4.54982      1.52669     -1.82664        -0.081616      0.005808      0.050924
      4.55098      0.13586     -7.34574         0.341786     -0.110897     -0.192226
      7.61892      1.51714     -1.79066        -0.000000      0.073975      0.054292
      7.61892      0.12485     -7.39421        -0.000000      0.041805     -0.048900
      9.13969      3.25278     -3.87770         0.029836     -0.039514      0.007207
      0.00084      1.83184     -9.51594        -0.018665     -0.078055     -0.075753
      3.04757      3.14561     -3.91454        -0.000000     -0.105194      0.008473
      3.04757      1.82654     -9.52255        -0.000000     -0.038474     -0.135265
      6.09814      3.25278     -3.87770        -0.029836     -0.039514      0.007207
      6.09429      1.83184     -9.51594         0.018665     -0.078055     -0.075753
      0.07963     -0.00713     -4.47394        -0.170237      0.275409     -0.004456
      0.00076     -1.35268    -10.15287         0.049558     -0.090967     -0.020890
      3.04757     -1.37278    -10.13610        -0.000000     -0.117827     -0.104666
      6.01550     -0.00713     -4.47394         0.170237      0.275409     -0.004456
      6.09438     -1.35268    -10.15287        -0.049558     -0.090967     -0.020890
      1.52028      4.74330     -1.15740         0.000841     -0.000312     -0.028005
      1.52471      3.36149     -6.81507        -0.036645      0.111502      0.042698
      4.57486      4.74330     -1.15740        -0.000841     -0.000312     -0.028005
      4.57043      3.36149     -6.81507         0.036645      0.111502      0.042698
      7.61892      4.73927     -1.15088        -0.000000      0.026534     -0.020540
      7.61892      3.35920     -6.80835        -0.000000      0.048156      0.001904
      1.50894     11.88000     -1.46406        -0.028035     -0.245405      0.092988
      1.51782     10.48545     -7.07818         0.034675     -0.087199      0.171663
      4.58619     11.88000     -1.46406         0.028035     -0.245405      0.092988
      4.57732     10.48545     -7.07818        -0.034675     -0.087199      0.171663
      7.61892     11.88420     -1.43329        -0.000000     -0.209898      0.083174
      7.61892     10.48397     -7.09457        -0.000000     -0.157768      0.162362
      9.13464      5.17442     -4.21654         0.004479      0.187204     -0.118574
      9.14109      3.75631     -9.85530         0.005490      0.171139     -0.104518
      3.04757      5.12521     -4.21185        -0.000000      0.270532     -0.140010
      3.04757      3.75358     -9.86007        -0.000000      0.175213     -0.102600
      6.10319      5.17442     -4.21654        -0.004479      0.187204     -0.118574
      6.09675      3.75631     -9.85530        -0.005490      0.171139     -0.104518
      1.52125      7.48461     -3.16861         0.002493     -0.046523     -0.098545
[...]
      4.57167      2.03229     -8.13119        -0.080980     -0.039284      0.229863
      7.61892      3.42578     -2.47839        -0.000000      0.034120      0.097184
      7.61892      2.02340     -8.12143        -0.000000      0.028274      0.131556
      1.50101      2.88276     -5.05017         0.031464      0.349006     -0.116743
      1.52015      1.46317    -10.68715        -0.001908      0.393003     -0.018068
      4.59412      2.88276     -5.05017        -0.031464      0.349006     -0.116743
      4.57498      1.46317    -10.68715         0.001908      0.393003     -0.018068
      7.61892      2.88057     -5.03916        -0.000000      0.371495     -0.094356
      7.61892      1.45030    -10.68237        -0.000000      0.392811     -0.050710
      0.00985      1.89706     -0.62776        -0.053447     -0.351238      0.092196
      9.13813      0.52177     -6.24912         0.121102     -0.435332      0.069828
      3.04757      1.92866     -0.58836        -0.000000     -0.380456      0.106250
      3.04757      0.56903     -6.27394        -0.000000     -0.237285     -0.224278
      6.08529      1.89706     -0.62776         0.053447     -0.351238      0.092196
      6.09971      0.52177     -6.24912        -0.121102     -0.435332      0.069828
    total drift:                               -0.100635      0.004645      0.030306

  FREE ENERGIE OF THE ION-ELECTRON SYSTEM (eV)
  free  energy   TOTEN  =      -938.57364705 eV

  energy  without entropy=     -938.57364705  energy(sigma->0) =     -938.57364705

 writing wavefunctions