 vasp.6.4.2 20Jul23 (build Nov 12 2023 22:16:35) complex
 executed on              LinuxNV date 2025.03.25  15:34:05
 OpenACC runtime initialized ...    4 GPUs detected

 INCAR:
   PREC = Normal
   ENCUT = 450
   NELM = 500
   IBRION = -1
   ISPIN = 1
   NSW = 0
   ISIF = 2
   EDIFF = 1E-5
   EDIFFG = -5E-3
   ISTART = 0
   ICHARG = 0
   ISMEAR = 0
   SIGMA = 0.05
   LWAVE = .T.
   LCHARG = .T.
   LREAL = Auto
   LPLANE = .TRUE.
   NPAR = 1
   KPAR = 4
   NCORE = 1
   ALGO = All
   LHFCALC = .TRUE.
   HSE06 = .TRUE.
   HFSCREEN = 0.2
   TIME = 0.4
   AEXX = 0.32
   LMAXFOCK = 4
   PRECFOCK = Fast

 POTCAR:    PAW_PBE Ga_d 06Jul2010
 POTCAR:    PAW_PBE O 08Apr2002
 POTCAR:    PAW_PBE Ga_d 06Jul2010
   VRHFIN =Ga: s2p1

   TITEL  = PAW_PBE Ga_d 06Jul2010
   POMASS =   69.723; ZVAL   =   13.000    mass and valenz
   ENMAX  =  282.691; ENMIN  =  212.018 eV

   TITEL  = PAW_PBE O 08Apr2002
   POMASS =   16.000; ZVAL   =    6.000    mass and valenz
   ENMAX  =  400.000; ENMIN  =  300.000 eV

 Optimization of the real space projectors (new method)

 maximal supplied QI-value         = 16.25
 optimisation between [QCUT,QGAM] = [ 10.73, 21.61] = [ 32.22,130.83] Ry
 Optimized for a Real-space Cutoff    1.42 Angstroem

   l    n(q)    QCUT    max X(q) W(low)/X(q) W(high)/X(q)  e(spline)
   2      8    10.726     7.143    0.22E-03    0.16E-03    0.73E-07
   2      8    10.726     5.586    0.40E-03    0.26E-03    0.10E-06
   0      9    10.726    12.382    0.25E-04    0.21E-05    0.37E-07
   0      9    10.726     6.622    0.42E-04    0.48E-05    0.77E-07
   1      9    10.726     7.935    0.27E-03    0.13E-04    0.16E-06
   1      9    10.726     2.425    0.23E-03    0.15E-04    0.14E-06
 Optimization of the real space projectors (new method)

 maximal supplied QI-value         = 24.76
 optimisation between [QCUT,QGAM] = [ 10.64, 21.54] = [ 31.73,129.89] Ry
 Optimized for a Real-space Cutoff    1.23 Angstroem

   l    n(q)    QCUT    max X(q) W(low)/X(q) W(high)/X(q)  e(spline)
   0      8    10.645    20.381    0.38E-03    0.60E-03    0.15E-06
   0      8    10.645    15.268    0.40E-03    0.65E-03    0.17E-06
   1      7    10.645     5.964    0.30E-03    0.63E-03    0.18E-06
   1      7    10.645     5.382    0.24E-03    0.53E-03    0.16E-06
  PAW_PBE Ga_d 06Jul2010                :
  PAW_PBE O 08Apr2002                   :

 POSCAR: Ga48 O72
  positions in direct lattice
  velocities in cartesian coordinates
 exchange correlation table for  LEXCH =        8
   RHO(1)=    0.500       N(1)  =     2000
   RHO(2)=  100.500       N(2)  =     4000

 ion  position               nearest neighbor table
   1  0.659  0.000  0.157-  85 1.94  83 1.95  79 1.95  67 2.02  61 2.08  65 2.08
   2  0.659  0.000  0.657-  86 1.94  84 1.95  80 1.95  68 2.02  62 2.08  66 2.08
   3  0.659  0.333  0.157-  87 1.94  81 1.95  79 1.95  69 2.02  63 2.08  61 2.08
   4  0.659  0.333  0.657-  88 1.94  82 1.95  80 1.95  70 2.02  64 2.08  62 2.08
   5  0.659  0.667  0.157-  89 1.94  81 1.95  83 1.95  71 2.02  63 2.08  65 2.08
   6  0.659  0.667  0.657-  90 1.94  82 1.95  84 1.95  72 2.02  64 2.08  66 2.08
   7  0.841  0.167  0.343-  91 1.94  73 1.95  75 1.95  61 2.02  67 2.08  69 2.08
   8  0.841  0.167  0.843-  92 1.94  74 1.95  76 1.95  62 2.02  68 2.08  70 2.08
   9  0.841  0.500  0.343-  93 1.94  77 1.95  75 1.95  63 2.02  71 2.08  69 2.08
  10  0.841  0.500  0.843-  94 1.94  78 1.95  76 1.95  64 2.02  72 2.08  70 2.08
  11  0.841  0.833  0.343-  95 1.94  73 1.95  77 1.95  65 2.02  67 2.08  71 2.08
  12  0.841  0.833  0.843-  96 1.94  74 1.95  78 1.95  66 2.02  68 2.08  72 2.08
  13  0.591  0.167  0.398-  80 1.84  55 1.85  57 1.85  61 1.87
  14  0.591  0.167  0.898-  79 1.84  56 1.85  58 1.85  62 1.87
  15  0.591  0.500  0.398-  82 1.84  59 1.85  57 1.85  63 1.87
  16  0.591  0.500  0.898-  81 1.84  60 1.85  58 1.85  64 1.87
  17  0.591  0.833  0.398-  84 1.84  55 1.85  59 1.85  65 1.87
  18  0.591  0.833  0.898-  83 1.84  56 1.85  60 1.85  66 1.87
  19  0.909  0.000  0.102-  74 1.84  53 1.85  49 1.85  67 1.87
  20  0.909  0.000  0.602-  73 1.84  54 1.85  50 1.85  68 1.87
  21  0.909  0.333  0.102-  76 1.84  51 1.85  49 1.85  69 1.87
  22  0.909  0.333  0.602-  75 1.84  52 1.85  50 1.85  70 1.87
  23  0.909  0.667  0.102-  78 1.84  51 1.85  53 1.85  71 1.87
  24  0.909  0.667  0.602-  77 1.84  52 1.85  54 1.85  72 1.87
  25  0.159  0.167  0.157-  49 1.94 115 1.95 117 1.95 103 2.02  97 2.08  99 2.08
  26  0.159  0.167  0.657-  50 1.94 116 1.95 118 1.95 104 2.02  98 2.08 100 2.08
  27  0.159  0.500  0.157-  51 1.94 117 1.95 119 1.95 105 2.02 101 2.08  99 2.08
  28  0.159  0.500  0.657-  52 1.94 118 1.95 120 1.95 106 2.02 102 2.08 100 2.08
  29  0.159  0.833  0.157-  53 1.94 115 1.95 119 1.95 107 2.02  97 2.08 101 2.08
  30  0.159  0.833  0.657-  54 1.94 116 1.95 120 1.95 108 2.02  98 2.08 102 2.08
  31  0.341  0.000  0.343-  55 1.94 109 1.95 113 1.95  97 2.02 103 2.08 107 2.08
  32  0.341  0.000  0.843-  56 1.94 110 1.95 114 1.95  98 2.02 104 2.08 108 2.08
  33  0.341  0.333  0.343-  57 1.94 111 1.95 109 1.95  99 2.02 105 2.08 103 2.08
  34  0.341  0.333  0.843-  58 1.94 112 1.95 110 1.95 100 2.02 106 2.08 104 2.08
  35  0.341  0.667  0.343-  59 1.94 111 1.95 113 1.95 101 2.02 105 2.08 107 2.08
  36  0.341  0.667  0.843-  60 1.94 112 1.95 114 1.95 102 2.02 106 2.08 108 2.08
  37  0.091  0.000  0.398- 116 1.84  95 1.85  91 1.85  97 1.87
  38  0.091  0.000  0.898- 115 1.84  96 1.85  92 1.85  98 1.87
  39  0.091  0.333  0.398- 118 1.84  93 1.85  91 1.85  99 1.87
  40  0.091  0.333  0.898- 117 1.84  94 1.85  92 1.85 100 1.87
  41  0.091  0.667  0.398- 120 1.84  93 1.85  95 1.85 101 1.87
  42  0.091  0.667  0.898- 119 1.84  94 1.85  96 1.85 102 1.87
  43  0.409  0.167  0.102- 110 1.84  85 1.85  87 1.85 103 1.87
  44  0.409  0.167  0.602- 109 1.84  86 1.85  88 1.85 104 1.87
  45  0.409  0.500  0.102- 112 1.84  89 1.85  87 1.85 105 1.87
  46  0.409  0.500  0.602- 111 1.84  90 1.85  88 1.85 106 1.87
  47  0.409  0.833  0.102- 114 1.84  85 1.85  89 1.85 107 1.87
  48  0.409  0.833  0.602- 113 1.84  86 1.85  90 1.85 108 1.87
  49  0.996  0.167  0.127-  19 1.85  21 1.85  25 1.94
  50  0.996  0.167  0.627-  20 1.85  22 1.85  26 1.94
  51  0.996  0.500  0.127-  21 1.85  23 1.85  27 1.94
  52  0.996  0.500  0.627-  22 1.85  24 1.85  28 1.94
  53  0.996  0.833  0.127-  19 1.85  23 1.85  29 1.94
  54  0.996  0.833  0.627-  20 1.85  24 1.85  30 1.94
  55  0.504  0.000  0.373-  13 1.85  17 1.85  31 1.94
  56  0.504  0.000  0.873-  14 1.85  18 1.85  32 1.94
  57  0.504  0.333  0.373-  15 1.85  13 1.85  33 1.94
  58  0.504  0.333  0.873-  16 1.85  14 1.85  34 1.94
  59  0.504  0.667  0.373-  15 1.85  17 1.85  35 1.94
  60  0.504  0.667  0.873-  16 1.85  18 1.85  36 1.94
[...]
 106  0.327  0.500  0.720-  46 1.87  28 2.02  36 2.08  34 2.08
 107  0.327  0.833  0.220-  47 1.87  29 2.02  31 2.08  35 2.08
 108  0.327  0.833  0.720-  48 1.87  30 2.02  32 2.08  36 2.08
 109  0.332  0.167  0.446-  44 1.84  31 1.95  33 1.95
 110  0.332  0.167  0.946-  43 1.84  32 1.95  34 1.95
 111  0.332  0.500  0.446-  46 1.84  35 1.95  33 1.95
 112  0.332  0.500  0.946-  45 1.84  36 1.95  34 1.95
 113  0.332  0.833  0.446-  48 1.84  31 1.95  35 1.95
 114  0.332  0.833  0.946-  47 1.84  32 1.95  36 1.95
 115  0.168  0.000  0.054-  38 1.84  29 1.95  25 1.95
 116  0.168  0.000  0.554-  37 1.84  30 1.95  26 1.95
 117  0.168  0.333  0.054-  40 1.84  27 1.95  25 1.95
 118  0.168  0.333  0.554-  39 1.84  28 1.95  26 1.95
 119  0.168  0.667  0.054-  42 1.84  27 1.95  29 1.95
 120  0.168  0.667  0.554-  41 1.84  28 1.95  30 1.95

  LATTYP: Found a simple monoclinic cell.
 ALAT       =    11.6348202465
 B/A-ratio  =     0.7858051831
 C/A-ratio  =     1.0554931797
 COS(beta)  =    -0.2379290539

  Lattice vectors:

 A1 = (   0.0000000000,  -2.7682617730, -11.3006977184)
 A2 = (  -9.1427020537,   0.0000000000,   0.0000000000)
 A3 = (   0.0000000000,  12.2804734172,   0.0000000000)

Analysis of symmetry for initial positions (statically):
 Subroutine PRICEL returns following result:

  LATTYP: Found a base centered monoclinic cell.
 ALAT       =    12.2804734172
 B/A-ratio  =     0.2481636699
 C/A-ratio  =     0.4737122036
 COS(beta)  =    -0.2379290539

[...]

  12 primitive cells build up your supercell.

 Routine SETGRP: Setting up the symmetry group for a
 simple monoclinic supercell.

 Subroutine GETGRP returns: Found  4 space group operations
 (whereof  4 operations were pure point group operations)
 out of a pool of  4 trial point group operations.

The static configuration has the point symmetry C_2h.

Analysis of symmetry for dynamics (positions and initial velocities):
 Subroutine PRICEL returns following result:

  LATTYP: Found a base centered monoclinic cell.
 ALAT       =    12.2804734172
 B/A-ratio  =     0.2481636699
 C/A-ratio  =     0.4737122036
 COS(beta)  =    -0.2379290539

  Lattice vectors:

 A1 = (  -1.5237836756,   6.1402367086,   0.0000000000)
 A2 = (   1.5237836756,   6.1402367086,   0.0000000000)
 A3 = (   0.0000000000,  -1.3841308865,  -5.6503488592)

  12 primitive cells build up your supercell.

 Routine SETGRP: Setting up the symmetry group for a
 simple monoclinic supercell.

 Subroutine GETGRP returns: Found  4 space group operations
 (whereof  4 operations were pure point group operations)
 out of a pool of  4 trial point group operations.

The dynamic configuration has the point symmetry C_2h.

 Subroutine INISYM returns: Found  4 space group operations
 (whereof  4 operations are pure point group operations),
 and found    12 'primitive' translations

                                     Primitive cell

  volume of cell :     105.7338

  direct lattice vectors                    reciprocal lattice vectors
    -1.523783676  6.140236709  0.000000000    -0.328130566  0.081430085 -0.019947423
     1.523783676  6.140236709  0.000000000     0.328130566  0.081430085 -0.019947423
     0.000000000 -1.384130887 -5.650348859     0.000000000  0.000000000 -0.176980223

  length of vectors
     6.326485875  6.326485875  5.817410123     0.338671562  0.338671562  0.176980223

  position of ions in fractional coordinates (direct lattice)
     0.659013702  0.659013702  0.313188755
     0.340986298  0.340986298  0.686811245
     0.091088513  0.091088513  0.795156053
     0.908911487  0.908911487  0.204843947
     0.496365390  0.496365390  0.254455414
     0.503634610  0.503634610  0.745544586
     0.172537050  0.172537050  0.560792266
     0.827462950  0.827462950  0.439207734
     0.832086263  0.832086263  0.891616462
     0.167913737  0.167913737  0.108383538

  ion indices of the primitive-cell ions
   primitive index   ion index
                 1           1
                 2           7
                 3          13
                 4          19
                 5          85
                 6          55
                 7          61
                 8          67
                 9          74
                10          79

 KPOINTS: Automatic mesh

Automatic generation of k-mesh.
 Grid dimensions read from file:
 generate k-points for:    1    1    1

 Generating k-lattice:

[...]
     52     -16.9801      2.00000
     53     -16.9613      2.00000
     54     -16.9612      2.00000
     55     -16.8849      2.00000
     56     -16.8848      2.00000
     57     -16.8801      2.00000
     58     -16.8801      2.00000
     59     -16.8675      2.00000
     60     -16.8674      2.00000
[...]
    619      16.6743      0.00000
    620      16.7116      0.00000
    621      16.8354      0.00000
    622      16.8841      0.00000
    623      17.0983      0.00000
    624      17.2130      0.00000
    625      17.3302      0.00000
    626      17.4710      0.00000
    627      17.5022      0.00000
    628      17.6641      0.00000
    629      17.8287      0.00000
    630      17.9892      0.00000
    631      18.2134      0.00000
    632      18.4817      0.00000
    633      18.7387      0.00000

 soft charge-density along one line, spin component            1
         0         1         2         3         4         5         6         7         8         9
 total charge-density along one line

------------------------ aborting loop because EDIFF is reached ----------------------------------------

  FORCE on cell =-STRESS in cart. coord.  units (eV):
  Direction    XX          YY          ZZ          XY          YZ          ZX
  Alpha Z  5537.53060  5537.53060  5537.53060
  Ewald  -25109.95125-32374.48089-31407.74330     0.00000 -1721.48064     0.00000
  Hartree 14116.14399  9560.24544 10201.73282    -0.00011 -1177.31971    -0.00005
  E(xc)   -4104.61765 -4107.57247 -4106.77892    -0.00000    -0.47351    -0.00000
  Local   -5958.93466  5715.90233  4071.85380     0.00038  2863.10913     0.00005
  n-local  5976.41836  5919.01059  5938.19343    -0.00004    -7.96603     0.00001
  augment  5515.93894  5536.48348  5545.10614    -0.00005     6.25976    -0.00000
  Kinetic 12446.85790 12629.73408 12638.58489    -0.00017    39.68836    -0.00002
  Fock    -8456.94185 -8458.83834 -8454.34552    -0.00005     0.54765    -0.00002
  Total     -37.55562   -41.98517   -35.86606     0.00000     2.36501     0.00000
  in kB     -47.42317   -53.01657   -45.28969     0.00000     2.98640     0.00000

 VOLUME and BASIS-vectors are now :
  energy-cutoff  :      450.00
  volume of cell :     1268.81
      direct lattice vectors                 reciprocal lattice vectors
     0.000000000 12.280473417  0.000000000     0.000000000  0.081430085 -0.019947423
     9.142702054  0.000000000  0.000000000     0.109376855 -0.000000000  0.000000000
     0.000000000 -2.768261773-11.300697718     0.000000000  0.000000000 -0.088490111

  length of vectors
    12.280473417  9.142702054 11.634820246     0.083837691  0.109376855  0.088490111

 FORCES acting on ions:
    Electron-Ion                     Ewald-Force                    Non-Local-Force
   -.118E-03 0.428E+02 -.835E+02   -.191E-13 -.424E+02 0.879E+02   0.000E+00 -.353E+00 -.417E+01
   0.107E-04 0.428E+02 -.835E+02   0.204E-13 -.424E+02 0.879E+02   0.169E-20 -.353E+00 -.417E+01
   0.949E-04 0.428E+02 -.835E+02   -.658E-10 -.424E+02 0.879E+02   -.127E-20 -.353E+00 -.417E+01
   -.462E-03 0.428E+02 -.835E+02   -.658E-10 -.424E+02 0.879E+02   0.847E-21 -.353E+00 -.417E+01
   0.692E-04 0.428E+02 -.835E+02   0.657E-10 -.424E+02 0.879E+02   0.000E+00 -.353E+00 -.417E+01
   0.426E-03 0.428E+02 -.835E+02   0.657E-10 -.424E+02 0.879E+02   -.169E-20 -.353E+00 -.417E+01
   -.459E-04 -.428E+02 0.835E+02   0.661E-10 0.424E+02 -.879E+02   0.000E+00 0.353E+00 0.417E+01
   0.213E-03 -.428E+02 0.835E+02   0.661E-10 0.424E+02 -.879E+02   0.847E-21 0.353E+00 0.417E+01
   -.811E-05 -.428E+02 0.835E+02   0.195E-13 0.424E+02 -.879E+02   -.127E-20 0.353E+00 0.417E+01
   -.339E-04 -.428E+02 0.835E+02   0.480E-13 0.424E+02 -.879E+02   0.148E-20 0.353E+00 0.417E+01
   0.238E-04 -.428E+02 0.835E+02   -.660E-10 0.424E+02 -.879E+02   -.254E-20 0.353E+00 0.417E+01
   -.221E-03 -.428E+02 0.835E+02   -.660E-10 0.424E+02 -.879E+02   -.169E-20 0.353E+00 0.417E+01
   0.125E-03 -.463E+02 0.294E+02   0.657E-10 0.442E+02 -.312E+02   -.169E-20 0.179E+01 0.167E+01
   -.562E-04 -.463E+02 0.294E+02   0.656E-10 0.442E+02 -.312E+02   -.169E-20 0.179E+01 0.167E+01
   -.140E-03 -.463E+02 0.294E+02   -.533E-14 0.442E+02 -.312E+02   0.127E-20 0.179E+01 0.167E+01
   0.752E-05 -.463E+02 0.294E+02   0.409E-13 0.442E+02 -.312E+02   0.000E+00 0.179E+01 0.167E+01
   -.988E-05 -.463E+02 0.294E+02   -.657E-10 0.442E+02 -.312E+02   0.000E+00 0.179E+01 0.167E+01
   0.908E-04 -.463E+02 0.294E+02   -.656E-10 0.442E+02 -.312E+02   -.212E-20 0.179E+01 0.167E+01
   -.946E-04 0.463E+02 -.294E+02   0.275E-13 -.442E+02 0.312E+02   0.000E+00 -.179E+01 -.167E+01
   0.487E-03 0.463E+02 -.294E+02   0.533E-13 -.442E+02 0.312E+02   0.254E-20 -.179E+01 -.167E+01
   0.115E-03 0.463E+02 -.294E+02   -.657E-10 -.442E+02 0.312E+02   0.169E-20 -.179E+01 -.167E+01
   -.298E-03 0.463E+02 -.294E+02   -.657E-10 -.442E+02 0.312E+02   0.424E-21 -.179E+01 -.167E+01
   0.831E-05 0.463E+02 -.294E+02   0.655E-10 -.442E+02 0.312E+02   0.254E-20 -.179E+01 -.167E+01
   -.208E-03 0.463E+02 -.294E+02   0.656E-10 -.442E+02 0.312E+02   -.233E-20 -.179E+01 -.167E+01
   -.106E-03 0.428E+02 -.835E+02   0.658E-10 -.424E+02 0.879E+02   -.847E-21 -.353E+00 -.417E+01
   0.290E-03 0.428E+02 -.835E+02   0.658E-10 -.424E+02 0.879E+02   0.847E-21 -.353E+00 -.417E+01
   0.192E-03 0.428E+02 -.835E+02   -.480E-13 -.424E+02 0.879E+02   0.847E-21 -.353E+00 -.417E+01
   -.169E-03 0.428E+02 -.835E+02   -.114E-12 -.424E+02 0.879E+02   0.138E-20 -.353E+00 -.417E+01
   -.109E-03 0.428E+02 -.835E+02   -.659E-10 -.424E+02 0.879E+02   -.106E-20 -.353E+00 -.417E+01
   -.175E-03 0.428E+02 -.835E+02   -.658E-10 -.424E+02 0.879E+02   -.424E-21 -.353E+00 -.417E+01
   -.478E-04 -.428E+02 0.835E+02   0.462E-13 0.424E+02 -.879E+02   0.254E-20 0.353E+00 0.417E+01
   -.295E-03 -.428E+02 0.835E+02   0.320E-13 0.424E+02 -.879E+02   0.275E-20 0.353E+00 0.417E+01
   -.296E-03 -.428E+02 0.835E+02   -.660E-10 0.424E+02 -.879E+02   -.212E-20 0.353E+00 0.417E+01
   0.603E-04 -.428E+02 0.835E+02   -.660E-10 0.424E+02 -.879E+02   0.148E-20 0.353E+00 0.417E+01
   0.409E-03 -.428E+02 0.835E+02   0.660E-10 0.424E+02 -.879E+02   -.847E-21 0.353E+00 0.417E+01
   0.308E-03 -.428E+02 0.835E+02   0.660E-10 0.424E+02 -.879E+02   -.339E-20 0.353E+00 0.417E+01
   -.130E-03 -.463E+02 0.294E+02   0.355E-13 0.442E+02 -.312E+02   0.424E-21 0.179E+01 0.167E+01
   -.444E-03 -.463E+02 0.294E+02   0.711E-14 0.442E+02 -.312E+02   0.169E-20 0.179E+01 0.167E+01
   0.182E-03 -.463E+02 0.294E+02   -.655E-10 0.442E+02 -.312E+02   -.741E-21 0.179E+01 0.167E+01
   -.125E-03 -.463E+02 0.294E+02   -.656E-10 0.442E+02 -.312E+02   -.847E-21 0.179E+01 0.167E+01
   -.433E-04 -.463E+02 0.294E+02   0.656E-10 0.442E+02 -.312E+02   -.212E-20 0.179E+01 0.167E+01
   0.565E-03 -.463E+02 0.294E+02   0.656E-10 0.442E+02 -.312E+02   -.212E-20 0.179E+01 0.167E+01
   0.154E-04 0.463E+02 -.294E+02   0.657E-10 -.442E+02 0.312E+02   -.847E-21 -.179E+01 -.167E+01
   0.464E-03 0.463E+02 -.294E+02   0.656E-10 -.442E+02 0.312E+02   -.159E-20 -.179E+01 -.167E+01
   0.859E-04 0.463E+02 -.294E+02   -.103E-12 -.442E+02 0.312E+02   0.000E+00 -.179E+01 -.167E+01
   0.843E-04 0.463E+02 -.294E+02   -.213E-13 -.442E+02 0.312E+02   0.847E-21 -.179E+01 -.167E+01
   -.137E-03 0.463E+02 -.294E+02   -.657E-10 -.442E+02 0.312E+02   -.847E-21 -.179E+01 -.167E+01
   -.491E-03 0.463E+02 -.294E+02   -.657E-10 -.442E+02 0.312E+02   -.122E-20 -.179E+01 -.167E+01
   0.166E-04 -.176E+02 0.146E+02   0.388E-10 0.250E+02 -.183E+02   0.900E-21 -.637E+01 0.325E+01
   0.108E-03 -.176E+02 0.146E+02   0.388E-10 0.250E+02 -.183E+02   0.576E-21 -.637E+01 0.325E+01
   0.100E-03 -.176E+02 0.146E+02   -.480E-13 0.250E+02 -.183E+02   -.529E-22 -.637E+01 0.325E+01
   -.783E-04 -.176E+02 0.146E+02   0.320E-13 0.250E+02 -.183E+02   0.609E-21 -.637E+01 0.325E+01
   -.174E-03 -.176E+02 0.146E+02   -.388E-10 0.250E+02 -.183E+02   0.635E-21 -.637E+01 0.325E+01
   -.763E-04 -.176E+02 0.146E+02   -.388E-10 0.250E+02 -.183E+02   -.159E-21 -.637E+01 0.325E+01
   -.311E-04 0.176E+02 -.146E+02   -.697E-13 -.250E+02 0.183E+02   -.212E-21 0.637E+01 -.325E+01
   -.181E-03 0.176E+02 -.146E+02   -.857E-13 -.250E+02 0.183E+02   -.265E-21 0.637E+01 -.325E+01
   -.117E-03 0.176E+02 -.146E+02   -.388E-10 -.250E+02 0.183E+02   0.265E-21 0.637E+01 -.325E+01
   0.898E-05 0.176E+02 -.146E+02   -.389E-10 -.250E+02 0.183E+02   0.265E-21 0.637E+01 -.325E+01
   0.117E-03 0.176E+02 -.146E+02   0.387E-10 -.250E+02 0.183E+02   0.106E-21 0.637E+01 -.325E+01
   0.148E-03 0.176E+02 -.146E+02   0.387E-10 -.250E+02 0.183E+02   -.265E-22 0.637E+01 -.325E+01
[...]
   -.714E-04 -.660E+02 -.376E+02   -.292E-10 0.640E+02 0.329E+02   0.331E-22 0.174E+01 0.405E+01
   -.936E-04 -.660E+02 -.376E+02   -.292E-10 0.640E+02 0.329E+02   0.132E-21 0.174E+01 0.405E+01
   0.120E-04 0.121E+03 0.631E+02   0.330E-10 -.134E+03 -.597E+02   0.265E-22 0.109E+02 -.299E+01
   -.102E-03 0.121E+03 0.631E+02   0.330E-10 -.134E+03 -.597E+02   -.119E-21 0.109E+02 -.299E+01
   -.796E-04 0.121E+03 0.631E+02   -.142E-13 -.134E+03 -.597E+02   0.159E-21 0.109E+02 -.299E+01
   0.191E-03 0.121E+03 0.631E+02   0.142E-13 -.134E+03 -.597E+02   0.476E-21 0.109E+02 -.299E+01
   0.376E-04 0.121E+03 0.631E+02   -.330E-10 -.134E+03 -.597E+02   -.265E-22 0.109E+02 -.299E+01
   -.476E-04 0.121E+03 0.631E+02   -.330E-10 -.134E+03 -.597E+02   -.106E-21 0.109E+02 -.299E+01
   -.228E-03 -.121E+03 -.631E+02   0.488E-13 0.134E+03 0.597E+02   0.106E-21 -.109E+02 0.299E+01
   0.429E-04 -.121E+03 -.631E+02   0.639E-13 0.134E+03 0.597E+02   0.185E-21 -.109E+02 0.299E+01
   0.999E-04 -.121E+03 -.631E+02   -.327E-10 0.134E+03 0.597E+02   0.000E+00 -.109E+02 0.299E+01
   0.104E-03 -.121E+03 -.631E+02   -.327E-10 0.134E+03 0.597E+02   -.344E-21 -.109E+02 0.299E+01
   0.905E-04 -.121E+03 -.631E+02   0.328E-10 0.134E+03 0.597E+02   0.212E-21 -.109E+02 0.299E+01
   -.108E-03 -.121E+03 -.631E+02   0.328E-10 0.134E+03 0.597E+02   0.000E+00 -.109E+02 0.299E+01
   -.145E-04 0.390E-03 -.506E-03   -.438E-13 -.568E-13 -.279E-11   -.607E-20 0.112E-12 -.173E-13

 POSITION                                       TOTAL-FORCE (eV/Angst)
      0.00000      7.65951     -1.76963        -0.000000      0.073792      0.009395
      0.00000      6.27538     -7.41997        -0.000000      0.073792      0.009395
      3.04757      7.65951     -1.76963         0.000000      0.073792      0.009395
      3.04757      6.27538     -7.41997         0.000000      0.073792      0.009395
      6.09513      7.65951     -1.76963         0.000000      0.073792      0.009395
      6.09513      6.27538     -7.41997        -0.000000      0.073792      0.009395
      1.52378      9.37707     -3.88072         0.000000     -0.073792     -0.009395
      1.52378      7.99294     -9.53107         0.000000     -0.073792     -0.009395
      4.57135      9.37707     -3.88072         0.000000     -0.073792     -0.009395
      4.57135      7.99294     -9.53107         0.000000     -0.073792     -0.009395
      7.61892      9.37707     -3.88072        -0.000000     -0.073792     -0.009395
      7.61892      7.99294     -9.53107         0.000000     -0.073792     -0.009395
      1.52378      6.15825     -4.49291        -0.000000     -0.017152      0.000195
      1.52378      4.77412    -10.14326         0.000000     -0.017152      0.000195
      4.57135      6.15825     -4.49291        -0.000000     -0.017152      0.000195
      4.57135      4.77412    -10.14326        -0.000000     -0.017152      0.000195
      7.61892      6.15825     -4.49291        -0.000000     -0.017152      0.000195
      7.61892      4.77412    -10.14326        -0.000000     -0.017152      0.000195
      0.00000     10.87833     -1.15744        -0.000000      0.017152     -0.000195
      0.00000      9.49420     -6.80779        -0.000000      0.017152     -0.000195
      3.04757     10.87833     -1.15744        -0.000000      0.017152     -0.000195
      3.04757      9.49420     -6.80779         0.000000      0.017152     -0.000195
      6.09513     10.87833     -1.15744        -0.000000      0.017152     -0.000195
      6.09513      9.49420     -6.80779        -0.000000      0.017152     -0.000195
      1.52378      1.51927     -1.76963         0.000000      0.073792      0.009395
      1.52378      0.13514     -7.41997        -0.000000      0.073792      0.009395
      4.57135      1.51927     -1.76963        -0.000000      0.073792      0.009395
      4.57135      0.13514     -7.41997         0.000000      0.073792      0.009395
      7.61892      1.51927     -1.76963         0.000000      0.073792      0.009395
      7.61892      0.13514     -7.41997         0.000000      0.073792      0.009395
      0.00000      3.23684     -3.88072        -0.000000     -0.073792     -0.009395
      0.00000      1.85271     -9.53107         0.000000     -0.073792     -0.009395
      3.04757      3.23684     -3.88072        -0.000000     -0.073792     -0.009395
      3.04757      1.85271     -9.53107         0.000000     -0.073792     -0.009395
      6.09513      3.23684     -3.88072        -0.000000     -0.073792     -0.009395
      6.09513      1.85271     -9.53107         0.000000     -0.073792     -0.009395
      0.00000      0.01801     -4.49291        -0.000000     -0.017152      0.000195
      0.00000     -1.36612    -10.14326        -0.000000     -0.017152      0.000195
      3.04757      0.01801     -4.49291         0.000000     -0.017152      0.000195
      3.04757     -1.36612    -10.14326         0.000000     -0.017152      0.000195
      6.09513      0.01801     -4.49291        -0.000000     -0.017152      0.000195
      6.09513     -1.36612    -10.14326         0.000000     -0.017152      0.000195
      1.52378      4.73810     -1.15744        -0.000000      0.017152     -0.000195
      1.52378      3.35396     -6.80779        -0.000000      0.017152     -0.000195
      4.57135      4.73810     -1.15744         0.000000      0.017152     -0.000195
      4.57135      3.35396     -6.80779        -0.000000      0.017152     -0.000195
      7.61892      4.73810     -1.15744        -0.000000      0.017152     -0.000195
      7.61892      3.35396     -6.80779        -0.000000      0.017152     -0.000195
      1.52378     11.88364     -1.43776        -0.000000     -0.165852      0.124898
      1.52378     10.49951     -7.08811         0.000000     -0.165852      0.124898
      4.57135     11.88364     -1.43776        -0.000000     -0.165852      0.124898
      4.57135     10.49951     -7.08811        -0.000000     -0.165852      0.124898
      7.61892     11.88364     -1.43776        -0.000000     -0.165852      0.124898
      7.61892     10.49951     -7.08811        -0.000000     -0.165852      0.124898
      0.00000      5.15294     -4.21259        -0.000000      0.165852     -0.124898
      0.00000      3.76881     -9.86294         0.000000      0.165852     -0.124898
      3.04757      5.15294     -4.21259        -0.000000      0.165852     -0.124898
      3.04757      3.76881     -9.86294        -0.000000      0.165852     -0.124898
      6.09513      5.15294     -4.21259        -0.000000      0.165852     -0.124898
      6.09513      3.76881     -9.86294        -0.000000      0.165852     -0.124898
[...]
      4.57135      2.02935     -8.13203        -0.000000      0.025532      0.146323
      7.61892      3.41348     -2.48168        -0.000000      0.025532      0.146323
      7.61892      2.02935     -8.13203        -0.000000      0.025532      0.146323
      1.52378      2.84406     -5.03794        -0.000000      0.409771     -0.104089
      1.52378      1.45993    -10.68829         0.000000      0.409771     -0.104089
      4.57135      2.84406     -5.03794         0.000000      0.409771     -0.104089
      4.57135      1.45993    -10.68829         0.000000      0.409771     -0.104089
      7.61892      2.84406     -5.03794        -0.000000      0.409771     -0.104089
      7.61892      1.45993    -10.68829        -0.000000      0.409771     -0.104089
      0.00000      1.91204     -0.61240        -0.000000     -0.409771      0.104089
      0.00000      0.52791     -6.26275         0.000000     -0.409771      0.104089
      3.04757      1.91204     -0.61240         0.000000     -0.409771      0.104089
      3.04757      0.52791     -6.26275         0.000000     -0.409771      0.104089
      6.09513      1.91204     -0.61240        -0.000000     -0.409771      0.104089
      6.09513      0.52791     -6.26275        -0.000000     -0.409771      0.104089
    total drift:                               -0.000015      0.000390     -0.000506

  FREE ENERGIE OF THE ION-ELECTRON SYSTEM (eV)
  free  energy   TOTEN  =      -957.51209896 eV

  energy  without entropy=     -957.51209896  energy(sigma->0) =     -957.51209896

 writing wavefunctions