 vasp.6.4.2 20Jul23 (build Nov 12 2023 22:16:35) complex
 executed on              LinuxNV date 2025.03.21  12:47:18
 OpenACC runtime initialized ...    4 GPUs detected

 INCAR:
   PREC = Normal
   ENCUT = 450
   NELM = 500
   IBRION = -1
   ISPIN = 1
   NSW = 0
   ISIF = 2
   EDIFF = 1E-5
   EDIFFG = -5E-3
   ISTART = 0
   ICHARG = 0
   ISMEAR = 0
   SIGMA = 0.05
   LWAVE = .T.
   LCHARG = .T.
   LREAL = Auto
   LPLANE = .TRUE.
   NPAR = 1
   KPAR = 4
   NCORE = 1
   ALGO = All
   LHFCALC = .TRUE.
   HSE06 = .TRUE.
   HFSCREEN = 0.2
   TIME = 0.4
   AEXX = 0.32
   LMAXFOCK = 4
   PRECFOCK = Fast

 POTCAR:    PAW_PBE Ga_d 06Jul2010
 POTCAR:    PAW_PBE O 08Apr2002
 POTCAR:    PAW_PBE N 08Apr2002
 POTCAR:    PAW_PBE Ga_d 06Jul2010
   VRHFIN =Ga: s2p1

   TITEL  = PAW_PBE Ga_d 06Jul2010
   POMASS =   69.723; ZVAL   =   13.000    mass and valenz
   ENMAX  =  282.691; ENMIN  =  212.018 eV

   TITEL  = PAW_PBE O 08Apr2002
   POMASS =   16.000; ZVAL   =    6.000    mass and valenz
   ENMAX  =  400.000; ENMIN  =  300.000 eV

   TITEL  = PAW_PBE N 08Apr2002
   POMASS =   14.001; ZVAL   =    5.000    mass and valenz
   ENMAX  =  400.000; ENMIN  =  300.000 eV

 Optimization of the real space projectors (new method)

 maximal supplied QI-value         = 16.25
 optimisation between [QCUT,QGAM] = [ 10.73, 21.61] = [ 32.22,130.83] Ry
 Optimized for a Real-space Cutoff    1.42 Angstroem

   l    n(q)    QCUT    max X(q) W(low)/X(q) W(high)/X(q)  e(spline)
   2      8    10.726     7.143    0.22E-03    0.16E-03    0.73E-07
   2      8    10.726     5.586    0.40E-03    0.26E-03    0.10E-06
   0      9    10.726    12.382    0.25E-04    0.21E-05    0.37E-07
   0      9    10.726     6.622    0.42E-04    0.48E-05    0.77E-07
   1      9    10.726     7.935    0.27E-03    0.13E-04    0.16E-06
   1      9    10.726     2.425    0.23E-03    0.15E-04    0.14E-06
 Optimization of the real space projectors (new method)

[...]

   l    n(q)    QCUT    max X(q) W(low)/X(q) W(high)/X(q)  e(spline)
   0      8    10.645    20.381    0.38E-03    0.60E-03    0.15E-06
   0      8    10.645    15.268    0.40E-03    0.65E-03    0.17E-06
   1      7    10.645     5.964    0.30E-03    0.63E-03    0.18E-06
   1      7    10.645     5.382    0.24E-03    0.53E-03    0.16E-06
 Optimization of the real space projectors (new method)

 maximal supplied QI-value         = 25.13
 optimisation between [QCUT,QGAM] = [ 10.81, 21.61] = [ 32.71,130.83] Ry
 Optimized for a Real-space Cutoff    1.23 Angstroem

   l    n(q)    QCUT    max X(q) W(low)/X(q) W(high)/X(q)  e(spline)
   0      8    10.807    79.467    0.34E-03    0.68E-03    0.21E-06
   0      8    10.807    66.151    0.34E-03    0.67E-03    0.21E-06
   1      7    10.807    14.030    0.45E-03    0.13E-02    0.11E-05
   1      7    10.807     9.831    0.48E-03    0.13E-02    0.11E-05
  PAW_PBE Ga_d 06Jul2010                :
  PAW_PBE O 08Apr2002                   :
  PAW_PBE N 08Apr2002                   :

 POSCAR: Ga48 O72
  positions in direct lattice
  velocities in cartesian coordinates
 exchange correlation table for  LEXCH =        8
   RHO(1)=    0.500       N(1)  =     2000
   RHO(2)=  100.500       N(2)  =     4000

 ion  position               nearest neighbor table
   1  0.658  0.999  0.156-  85 1.94  83 1.95  79 1.96  67 2.00  65 2.08  61 2.08
   2  0.659  1.000  0.657-  86 1.94  84 1.95  80 1.95  68 2.03  66 2.08  62 2.08
   3  0.658  0.334  0.156-  87 1.94  81 1.95  79 1.96  69 2.00  63 2.08  61 2.08
   4  0.659  0.333  0.657-  88 1.94  82 1.95  80 1.95  70 2.03  64 2.08  62 2.08
   5  0.659  0.667  0.156-  89 1.94  81 1.95  83 1.95  71 2.02  63 2.07  65 2.07
   6  0.659  0.667  0.657-  90 1.94  82 1.95  84 1.95  72 2.02  64 2.08  66 2.08
   7  0.839  0.167  0.344- 120 1.93  73 1.97  75 1.97  61 2.01  67 2.11  69 2.11
   8  0.841  0.167  0.843-  91 1.95  74 1.95  76 1.95  62 2.02  68 2.07  70 2.07
   9  0.841  0.500  0.343-  92 1.94  77 1.95  75 1.96  63 2.03  69 2.06  71 2.07
  10  0.842  0.500  0.844-  93 1.94  78 1.95  76 1.96  64 2.02  72 2.08  70 2.08
  11  0.841  0.833  0.343-  94 1.94  77 1.95  73 1.96  65 2.03  67 2.06  71 2.07
  12  0.842  0.833  0.844-  95 1.94  78 1.95  74 1.96  66 2.02  72 2.08  68 2.08
  13  0.592  0.167  0.398-  80 1.84  55 1.85  57 1.85  61 1.87
  14  0.591  0.167  0.898-  79 1.84  56 1.85  58 1.85  62 1.87
  15  0.592  0.500  0.398-  82 1.84  59 1.85  57 1.85  63 1.87
  16  0.590  0.500  0.897-  81 1.84  60 1.85  58 1.85  64 1.87
  17  0.592  0.833  0.398-  84 1.84  59 1.85  55 1.85  65 1.87
  18  0.590  0.833  0.897-  83 1.84  60 1.85  56 1.85  66 1.87
  19  0.909  0.999  0.104-  74 1.84  53 1.84  67 1.86  49 1.86
  20  0.908  0.999  0.601-  73 1.84  54 1.85  50 1.86  68 1.87
  21  0.909  0.335  0.104-  76 1.84  51 1.84  69 1.86  49 1.86
  22  0.908  0.334  0.601-  75 1.84  52 1.85  50 1.86  70 1.87
  23  0.909  0.667  0.103-  78 1.84  51 1.85  53 1.85  71 1.87
  24  0.909  0.667  0.602-  77 1.84  52 1.85  54 1.85  72 1.88
  25  0.161  0.167  0.159- 114 1.95 116 1.95  49 1.97 102 2.01  96 2.07  98 2.07
  26  0.160  0.167  0.655- 115 1.95 117 1.95  50 1.96 103 2.02  97 2.08  99 2.08
  27  0.160  0.500  0.157-  51 1.95 118 1.95 116 1.96 104 2.02  98 2.06 100 2.07
  28  0.159  0.500  0.656-  52 1.95 117 1.95 119 1.95 105 2.03 101 2.08  99 2.08
  29  0.160  0.833  0.157-  53 1.95 118 1.95 114 1.96 106 2.02  96 2.06 100 2.07
  30  0.159  0.833  0.656-  54 1.95 115 1.95 119 1.95 107 2.03 101 2.08  97 2.08
  31  0.342  1.000  0.344-  55 1.94 112 1.95 108 1.95  96 2.01 106 2.08 102 2.08
  32  0.341  0.000  0.843-  56 1.94 113 1.95 109 1.95  97 2.03 107 2.07 103 2.07
  33  0.342  0.334  0.344-  57 1.94 110 1.95 108 1.95  98 2.01 104 2.08 102 2.08
  34  0.341  0.333  0.843-  58 1.94 111 1.95 109 1.95  99 2.03 105 2.07 103 2.07
  35  0.342  0.667  0.344-  59 1.94 110 1.95 112 1.95 100 2.02 104 2.08 106 2.08
  36  0.340  0.667  0.843-  60 1.94 111 1.96 113 1.96 101 2.02 105 2.07 107 2.07
  37  0.090  1.000  0.397-  94 1.85 115 1.85 120 1.87  96 1.89
  38  0.091  1.000  0.897- 114 1.84  95 1.85  91 1.85  97 1.87
  39  0.090  0.333  0.397-  92 1.85 117 1.85 120 1.87  98 1.89
  40  0.091  0.334  0.897- 116 1.84  93 1.85  91 1.85  99 1.87
  41  0.092  0.667  0.398-  92 1.84  94 1.84 119 1.84 100 1.87
  42  0.091  0.667  0.898- 118 1.84  93 1.85  95 1.85 101 1.87
  43  0.409  0.167  0.102- 109 1.84  85 1.85  87 1.85 102 1.87
  44  0.410  0.167  0.603- 108 1.84  86 1.85  88 1.85 103 1.87
  45  0.409  0.500  0.102- 111 1.84  89 1.84  87 1.85 104 1.87
  46  0.409  0.500  0.603- 110 1.84  90 1.85  88 1.85 105 1.87
  47  0.409  0.833  0.102- 113 1.84  89 1.84  85 1.85 106 1.87
  48  0.409  0.833  0.603- 112 1.84  90 1.85  86 1.85 107 1.87
  49  0.997  0.167  0.138-  19 1.86  21 1.86  25 1.97
  50  0.996  0.167  0.620-  20 1.86  22 1.86  26 1.96
  51  0.997  0.500  0.128-  21 1.84  23 1.85  27 1.95
  52  0.996  0.500  0.627-  22 1.85  24 1.85  28 1.95
  53  0.997  0.833  0.128-  19 1.84  23 1.85  29 1.95
  54  0.996  0.833  0.627-  20 1.85  24 1.85  30 1.95
  55  0.504  1.000  0.373-  13 1.85  17 1.85  31 1.94
  56  0.503  0.000  0.873-  14 1.85  18 1.85  32 1.94
  57  0.504  0.333  0.373-  13 1.85  15 1.85  33 1.94
  58  0.503  0.333  0.873-  14 1.85  16 1.85  34 1.94
  59  0.504  0.667  0.373-  15 1.85  17 1.85  35 1.94
  60  0.503  0.667  0.872-  16 1.85  18 1.85  36 1.94
[...]
 106  0.328  0.833  0.220-  47 1.87  29 2.02  35 2.08  31 2.08
 107  0.328  0.833  0.720-  48 1.87  30 2.03  32 2.07  36 2.07
 108  0.333  0.167  0.446-  44 1.84  31 1.95  33 1.95
 109  0.332  0.167  0.946-  43 1.84  32 1.95  34 1.95
 110  0.333  0.500  0.446-  46 1.84  33 1.95  35 1.95
 111  0.331  0.500  0.946-  45 1.84  34 1.95  36 1.96
 112  0.333  0.833  0.446-  48 1.84  31 1.95  35 1.95
 113  0.331  0.834  0.946-  47 1.84  32 1.95  36 1.96
 114  0.166  0.001  0.055-  38 1.84  25 1.95  29 1.96
 115  0.169  0.999  0.554-  37 1.85  30 1.95  26 1.95
 116  0.166  0.332  0.055-  40 1.84  25 1.95  27 1.96
 117  0.169  0.334  0.554-  39 1.85  28 1.95  26 1.95
 118  0.168  0.667  0.054-  42 1.84  27 1.95  29 1.95
 119  0.168  0.667  0.554-  41 1.84  28 1.95  30 1.95
 120  0.000  0.167  0.369-  37 1.87  39 1.87   7 1.93

  LATTYP: Found a simple monoclinic cell.
 ALAT       =    11.6348202465
 B/A-ratio  =     0.7858051831
 C/A-ratio  =     1.0554931797
 COS(beta)  =    -0.2379290539

  Lattice vectors:

 A1 = (   0.0000000000,  -2.7682617730, -11.3006977184)
 A2 = (  -9.1427020537,   0.0000000000,   0.0000000000)
 A3 = (   0.0000000000,  12.2804734172,   0.0000000000)

Analysis of symmetry for initial positions (statically):
 Subroutine PRICEL returns:
 Original cell was already a primitive cell.

 Routine SETGRP: Setting up the symmetry group for a
 simple monoclinic supercell.

 Subroutine GETGRP returns: Found  2 space group operations
 (whereof  1 operations were pure point group operations)
 out of a pool of  4 trial point group operations.

The static configuration has the point symmetry C_1 .
 The point group associated with its full space group is C_1h.

Analysis of symmetry for dynamics (positions and initial velocities):
 Subroutine PRICEL returns:
 Original cell was already a primitive cell.

 Routine SETGRP: Setting up the symmetry group for a
 simple monoclinic supercell.

 Subroutine GETGRP returns: Found  2 space group operations
 (whereof  1 operations were pure point group operations)
 out of a pool of  4 trial point group operations.

The dynamic configuration has the point symmetry C_1 .
 The point group associated with its full space group is C_1h.

 Subroutine INISYM returns: Found  2 space group operations
 (whereof  1 operations are pure point group operations),
 and found     1 'primitive' translations

                                     Primitive cell

  volume of cell :    1268.8052

  direct lattice vectors                    reciprocal lattice vectors
     0.000000000 12.280473417  0.000000000     0.000000000  0.081430085 -0.019947423
     9.142702054  0.000000000  0.000000000     0.109376855 -0.000000000  0.000000000
     0.000000000 -2.768261773-11.300697718     0.000000000  0.000000000 -0.088490111

  length of vectors
    12.280473417  9.142702054 11.634820246     0.083837691  0.109376855  0.088490111

  position of ions in fractional coordinates (direct lattice)
     0.658411526  0.999368393  0.155947260
     0.659240521  0.999882455  0.656850370
     0.658411526  0.333964940  0.155947260
     0.659240521  0.333450879  0.656850370
     0.658672115  0.666666667  0.156272035
     0.659421541  0.666666667  0.656966991
     0.839158206  0.166666667  0.343584098
     0.841099253  0.166666667  0.843198462
     0.840694200  0.500492321  0.342871427
     0.841632944  0.500126396  0.843811297
     0.840694200  0.832841012  0.342871427
     0.841632944  0.833206937  0.843811297
     0.591543066  0.166666667  0.397879367
     0.590777455  0.166666667  0.897520854
     0.591732535  0.500138867  0.397801981
     0.590499251  0.500136749  0.897080378
     0.591732535  0.833194466  0.397801981
     0.590499251  0.833196585  0.897080378
     0.908558745  0.998799704  0.103737896
     0.907744549  0.999070333  0.601114796
[...]
     52     -16.9755      2.00000
     53     -16.9667      2.00000
     54     -16.9620      2.00000
     55     -16.9567      2.00000
     56     -16.9158      2.00000
     57     -16.8997      2.00000
     58     -16.8980      2.00000
     59     -16.8942      2.00000
     60     -16.8876      2.00000
[...]
    619      16.0465      0.00000
    620      16.1078      0.00000
    621      16.1546      0.00000
    622      16.3137      0.00000
    623      16.4834      0.00000
    624      16.6350      0.00000
    625      16.6974      0.00000
    626      16.8070      0.00000
    627      16.8450      0.00000
    628      16.9616      0.00000
    629      17.0093      0.00000
    630      17.1181      0.00000
    631      17.2278      0.00000
    632      17.3574      0.00000
    633      17.4076      0.00000

 soft charge-density along one line, spin component            1
         0         1         2         3         4         5         6         7         8         9
 total charge-density along one line

------------------------ aborting loop because EDIFF is reached ----------------------------------------

  FORCE on cell =-STRESS in cart. coord.  units (eV):
  Direction    XX          YY          ZZ          XY          YZ          ZX
  Alpha Z  5530.94813  5530.94813  5530.94813
  Ewald  -25135.03586-32326.03904-31307.46416     0.00000 -1706.16945    -0.00000
  Hartree 14065.41334  9545.11627 10221.20482    -0.00000 -1163.48536     0.00003
  E(xc)   -4098.09529 -4101.06237 -4100.20354    -0.00000    -0.46922    -0.00000
  Local   -5860.39827  5694.50248  3986.29612    -0.00001  2838.70684    -0.00006
  n-local  5987.21277  5931.85050  5952.54153     0.00001    -7.35132     0.00002
  augment  5508.25199  5531.04026  5537.09519     0.00000     5.73236     0.00001
  Kinetic 12409.54140 12606.99496 12586.18440     0.00005    33.33083     0.00007
  Fock    -8444.22520 -8448.19680 -8443.37556    -0.00000     0.46066     0.00001
  Total     -36.38699   -34.84561   -36.77308     0.00000     0.75535     0.00000
  in kB     -45.94748   -44.00111   -46.43503     0.00000     0.95381     0.00000

 VOLUME and BASIS-vectors are now :
  energy-cutoff  :      450.00
  volume of cell :     1268.81
      direct lattice vectors                 reciprocal lattice vectors
     0.000000000 12.280473417  0.000000000     0.000000000  0.081430085 -0.019947423
     9.142702054  0.000000000  0.000000000     0.109376855 -0.000000000  0.000000000
     0.000000000 -2.768261773-11.300697718     0.000000000  0.000000000 -0.088490111

  length of vectors
    12.280473417  9.142702054 11.634820246     0.083837691  0.109376855  0.088490111

 FORCES acting on ions:
    Electron-Ion                     Ewald-Force                    Non-Local-Force
   -.104E+02 0.384E+02 -.851E+02   0.101E+02 -.374E+02 0.894E+02   0.262E+00 -.817E+00 -.410E+01
   -.249E+01 0.371E+02 -.756E+02   0.240E+01 -.367E+02 0.802E+02   0.877E-01 -.231E+00 -.437E+01
   0.104E+02 0.384E+02 -.851E+02   -.101E+02 -.374E+02 0.894E+02   -.262E+00 -.817E+00 -.410E+01
   0.249E+01 0.371E+02 -.756E+02   -.240E+01 -.367E+02 0.802E+02   -.877E-01 -.231E+00 -.437E+01
   0.808E-05 0.368E+02 -.885E+02   0.190E-10 -.364E+02 0.926E+02   0.000E+00 -.236E+00 -.394E+01
   0.961E-04 0.394E+02 -.761E+02   0.239E-10 -.388E+02 0.808E+02   0.000E+00 -.414E+00 -.447E+01
   -.379E-04 -.971E+02 0.950E+02   0.254E-11 0.101E+03 -.997E+02   0.000E+00 -.412E+01 0.452E+01
   -.199E-03 -.538E+02 0.925E+02   0.583E-11 0.534E+02 -.969E+02   0.000E+00 0.327E+00 0.417E+01
   0.143E+02 -.624E+02 0.888E+02   -.143E+02 0.618E+02 -.930E+02   -.864E-02 0.454E+00 0.397E+01
   0.761E+01 -.455E+02 0.870E+02   -.734E+01 0.451E+02 -.914E+02   -.263E+00 0.221E+00 0.419E+01
   -.143E+02 -.624E+02 0.888E+02   0.143E+02 0.618E+02 -.930E+02   0.864E-02 0.454E+00 0.397E+01
   -.761E+01 -.455E+02 0.870E+02   0.734E+01 0.451E+02 -.914E+02   0.263E+00 0.221E+00 0.419E+01
   0.100E-06 -.461E+02 0.284E+02   0.560E-10 0.438E+02 -.300E+02   0.000E+00 0.211E+01 0.153E+01
   0.732E-05 -.546E+02 0.300E+02   0.873E-11 0.526E+02 -.319E+02   0.000E+00 0.181E+01 0.184E+01
   0.246E+01 -.444E+02 0.320E+02   -.235E+01 0.423E+02 -.334E+02   -.974E-01 0.194E+01 0.127E+01
   0.251E+01 -.522E+02 0.270E+02   -.253E+01 0.502E+02 -.291E+02   0.101E-01 0.173E+01 0.198E+01
   -.246E+01 -.444E+02 0.320E+02   0.235E+01 0.423E+02 -.334E+02   0.974E-01 0.194E+01 0.127E+01
   -.251E+01 -.522E+02 0.270E+02   0.253E+01 0.502E+02 -.291E+02   -.101E-01 0.173E+01 0.198E+01
   -.247E+02 0.271E+02 -.372E+02   0.236E+02 -.259E+02 0.385E+02   0.104E+01 -.993E+00 -.125E+01
   -.179E+02 0.237E+02 -.234E+02   0.174E+02 -.221E+02 0.255E+02   0.562E+00 -.145E+01 -.201E+01
   0.247E+02 0.271E+02 -.372E+02   -.236E+02 -.259E+02 0.385E+02   -.104E+01 -.993E+00 -.125E+01
   0.179E+02 0.237E+02 -.234E+02   -.174E+02 -.221E+02 0.255E+02   -.562E+00 -.145E+01 -.201E+01
   0.553E-04 0.395E+02 -.326E+02   0.264E-10 -.374E+02 0.342E+02   0.000E+00 -.184E+01 -.153E+01
   0.266E-04 0.368E+02 -.247E+02   0.390E-11 -.348E+02 0.264E+02   0.000E+00 -.181E+01 -.168E+01
   -.537E-04 0.690E+02 -.933E+02   0.447E-10 -.672E+02 0.974E+02   0.000E+00 -.157E+01 -.386E+01
   -.554E-04 0.657E+02 -.965E+02   0.473E-10 -.644E+02 0.101E+03   0.000E+00 -.122E+01 -.421E+01
   0.654E+01 0.493E+02 -.899E+02   -.666E+01 -.489E+02 0.939E+02   0.108E+00 -.336E+00 -.378E+01
   0.851E+01 0.531E+02 -.858E+02   -.854E+01 -.524E+02 0.904E+02   0.318E-01 -.560E+00 -.444E+01
   -.654E+01 0.493E+02 -.899E+02   0.666E+01 -.489E+02 0.939E+02   -.108E+00 -.336E+00 -.378E+01
   -.851E+01 0.531E+02 -.858E+02   0.854E+01 -.524E+02 0.904E+02   -.318E-01 -.560E+00 -.444E+01
   -.562E+01 -.321E+02 0.825E+02   0.548E+01 0.314E+02 -.870E+02   0.124E+00 0.560E+00 0.430E+01
   -.341E+01 -.326E+02 0.827E+02   0.332E+01 0.323E+02 -.871E+02   0.845E-01 0.263E+00 0.413E+01
   0.562E+01 -.321E+02 0.825E+02   -.548E+01 0.314E+02 -.870E+02   -.124E+00 0.560E+00 0.430E+01
   0.341E+01 -.326E+02 0.827E+02   -.332E+01 0.323E+02 -.871E+02   -.845E-01 0.263E+00 0.413E+01
   0.386E-04 -.351E+02 0.811E+02   0.623E-10 0.348E+02 -.856E+02   0.000E+00 0.237E+00 0.435E+01
   0.322E-04 -.361E+02 0.845E+02   -.327E-11 0.356E+02 -.887E+02   0.000E+00 0.374E+00 0.398E+01
   -.511E+02 -.157E+02 0.279E+02   0.541E+02 0.111E+02 -.285E+02   -.333E+01 0.466E+01 0.501E+00
   -.109E+02 -.408E+02 0.304E+02   0.109E+02 0.384E+02 -.321E+02   -.135E-01 0.210E+01 0.154E+01
   0.511E+02 -.157E+02 0.279E+02   -.541E+02 0.111E+02 -.285E+02   0.333E+01 0.466E+01 0.501E+00
   0.109E+02 -.408E+02 0.304E+02   -.109E+02 0.384E+02 -.321E+02   0.135E-01 0.210E+01 0.154E+01
   0.606E-04 -.502E+02 0.305E+02   0.359E-10 0.472E+02 -.320E+02   0.000E+00 0.266E+01 0.145E+01
   0.118E-03 -.432E+02 0.304E+02   0.252E-10 0.410E+02 -.320E+02   0.000E+00 0.197E+01 0.154E+01
   0.118E-04 0.546E+02 -.322E+02   0.359E-10 -.524E+02 0.337E+02   0.000E+00 -.192E+01 -.147E+01
   0.516E-05 0.543E+02 -.325E+02   0.332E-10 -.521E+02 0.343E+02   0.000E+00 -.193E+01 -.173E+01
   0.404E+01 0.529E+02 -.323E+02   -.390E+01 -.509E+02 0.338E+02   -.122E+00 -.181E+01 -.138E+01
   0.220E+01 0.521E+02 -.316E+02   -.216E+01 -.500E+02 0.334E+02   -.398E-01 -.194E+01 -.173E+01
   -.404E+01 0.529E+02 -.323E+02   0.390E+01 -.509E+02 0.338E+02   0.122E+00 -.181E+01 -.138E+01
   -.220E+01 0.521E+02 -.316E+02   0.216E+01 -.500E+02 0.334E+02   0.398E-01 -.194E+01 -.173E+01
   -.796E-04 -.156E+02 0.289E+02   0.302E-10 0.224E+02 -.355E+02   0.000E+00 -.585E+01 0.573E+01
   -.478E-04 -.252E+02 0.626E+00   0.529E-11 0.331E+02 -.219E+01   0.000E+00 -.682E+01 0.137E+01
   0.510E+01 -.214E+02 0.133E+02   -.507E+01 0.291E+02 -.170E+02   -.180E-01 -.660E+01 0.312E+01
   0.566E+01 -.213E+02 0.159E+02   -.565E+01 0.288E+02 -.199E+02   -.515E-02 -.640E+01 0.347E+01
   -.510E+01 -.214E+02 0.133E+02   0.507E+01 0.291E+02 -.170E+02   0.180E-01 -.660E+01 0.312E+01
   -.566E+01 -.213E+02 0.159E+02   0.565E+01 0.288E+02 -.199E+02   0.515E-02 -.640E+01 0.347E+01
   -.750E+00 0.190E+02 -.157E+02   0.678E+00 -.262E+02 0.195E+02   0.602E-01 0.621E+01 -.326E+01
   -.113E+01 0.169E+02 -.139E+02   0.114E+01 -.242E+02 0.176E+02   -.172E-01 0.628E+01 -.320E+01
   0.750E+00 0.190E+02 -.157E+02   -.678E+00 -.262E+02 0.195E+02   -.602E-01 0.621E+01 -.326E+01
   0.113E+01 0.169E+02 -.139E+02   -.114E+01 -.242E+02 0.176E+02   0.172E-01 0.628E+01 -.320E+01
   -.147E-04 0.193E+02 -.141E+02   0.351E-10 -.265E+02 0.178E+02   0.000E+00 0.623E+01 -.315E+01
   -.143E-04 0.171E+02 -.146E+02   -.525E-12 -.244E+02 0.185E+02   0.000E+00 0.629E+01 -.330E+01
[...]
   -.106E+01 -.621E+02 -.393E+02   0.997E+00 0.601E+02 0.348E+02   0.546E-01 0.173E+01 0.393E+01
   -.872E-05 0.129E+03 0.602E+02   0.322E-10 -.142E+03 -.566E+02   0.000E+00 0.108E+02 -.314E+01
   0.522E-05 0.127E+03 0.627E+02   0.857E-11 -.139E+03 -.592E+02   0.000E+00 0.109E+02 -.299E+01
   0.138E+01 0.125E+03 0.623E+02   -.132E+01 -.138E+03 -.587E+02   -.537E-01 0.108E+02 -.305E+01
   0.197E+01 0.125E+03 0.628E+02   -.195E+01 -.138E+03 -.594E+02   -.114E-01 0.109E+02 -.296E+01
   -.138E+01 0.125E+03 0.623E+02   0.132E+01 -.138E+03 -.587E+02   0.537E-01 0.108E+02 -.305E+01
   -.197E+01 0.125E+03 0.628E+02   0.195E+01 -.138E+03 -.594E+02   0.114E-01 0.109E+02 -.296E+01
   -.501E+01 -.109E+03 -.643E+02   0.496E+01 0.121E+03 0.607E+02   0.312E-01 -.102E+02 0.303E+01
   -.632E+01 -.115E+03 -.743E+02   0.624E+01 0.127E+03 0.716E+02   0.995E-01 -.111E+02 0.231E+01
   0.501E+01 -.109E+03 -.643E+02   -.496E+01 0.121E+03 0.607E+02   -.312E-01 -.102E+02 0.303E+01
   0.632E+01 -.115E+03 -.743E+02   -.624E+01 0.127E+03 0.716E+02   -.995E-01 -.111E+02 0.231E+01
   0.728E-04 -.117E+03 -.637E+02   0.202E-10 0.129E+03 0.602E+02   0.000E+00 -.108E+02 0.304E+01
   0.305E-04 -.119E+03 -.653E+02   0.282E-10 0.132E+03 0.619E+02   0.000E+00 -.110E+02 0.287E+01
   -.318E-04 0.605E+01 -.105E+02   0.218E-10 -.112E+02 0.131E+02   0.000E+00 0.470E+01 -.246E+01
   0.218E-03 -.180E+01 -.662E+00   0.329E-13 0.437E-12 0.568E-13   0.139E-15 0.204E+01 0.113E+00

 POSITION                                       TOTAL-FORCE (eV/Angst)
      9.13693      7.65390     -1.76231        -0.008073      0.069942      0.014258
      9.14163      6.27745     -7.42287         0.001370      0.078267      0.002760
      3.05334      7.65390     -1.76231         0.008073      0.069942      0.014258
      3.04864      6.27745     -7.42287        -0.001370      0.078267      0.002760
      6.09513      7.65620     -1.76598         0.000000      0.057440      0.007722
      6.09513      6.27935     -7.42419         0.000000      0.077029      0.011485
      1.52378      9.35413     -3.88274         0.000000     -0.413523      0.047390
      1.52378      7.99490     -9.52873         0.000000     -0.025631     -0.026033
      4.57585      9.37496     -3.87469         0.007894     -0.115946      0.008297
      4.57251      7.99976     -9.53566        -0.010156     -0.061259     -0.013781
      7.61442      9.37496     -3.87469        -0.007894     -0.115946      0.008297
      7.61776      7.99976     -9.53566         0.010156     -0.061259     -0.013781
      1.52378      6.16299     -4.49631         0.000000     -0.024751      0.007408
      1.52378      4.77045    -10.14261         0.000000     -0.015142      0.011118
      4.57262      6.16554     -4.49544         0.000390     -0.023612      0.013896
      4.57260      4.76826    -10.13763        -0.001943     -0.013288      0.005577
      7.61765      6.16554     -4.49544        -0.000390     -0.023612      0.013896
      7.61767      4.76826    -10.13763         0.001943     -0.013288      0.005577
      9.13173     10.87036     -1.17231         0.035521      0.049650     -0.000655
      9.13420      9.48349     -6.79302         0.026087      0.021809     -0.033932
      3.05854     10.87036     -1.17231        -0.035521      0.049650     -0.000655
      3.05607      9.48349     -6.79302        -0.026087      0.021809     -0.033932
      6.09513     10.88324     -1.16373         0.000000      0.024810      0.000175
      6.09513      9.49392     -6.80162         0.000000      0.013411     -0.030365
      1.52378      1.53564     -1.79393         0.000000      0.045608      0.059245
      1.52378      0.15036     -7.40364         0.000000      0.045476     -0.033872
      4.57191      1.52596     -1.77780        -0.004748      0.067697      0.025835
      4.57181      0.13579     -7.41571         0.007962      0.065019     -0.012595
      7.61836      1.52596     -1.77780         0.004748      0.067697      0.025835
      7.61846      0.13579     -7.41571        -0.007962      0.065019     -0.012595
      9.13893      3.24618     -3.88764        -0.007208     -0.052173     -0.013232
      0.00024      1.84997     -9.52702        -0.000328     -0.070735     -0.008110
      3.05134      3.24618     -3.88764         0.007208     -0.052173     -0.013232
      3.04733      1.84997     -9.52702         0.000328     -0.070735     -0.008110
      6.09513      3.24622     -3.88226         0.000000     -0.057141     -0.011674
      6.09513      1.84688     -9.52972         0.000000     -0.072346     -0.003502
      9.14224      0.00778     -4.48471        -0.336818      0.215296     -0.037065
      9.14108     -1.36157    -10.14223         0.037396     -0.058136      0.010948
      3.04803      0.00778     -4.48471         0.336818      0.215296     -0.037065
      3.04919     -1.36157    -10.14223        -0.037396     -0.058136      0.010948
      6.09513      0.02304     -4.49517         0.000000     -0.006390      0.007839
      6.09513     -1.36260    -10.14672         0.000000     -0.031563      0.016500
      1.52378      4.73949     -1.15309         0.000000      0.020986     -0.009560
      1.52378      3.36167     -6.80873         0.000000      0.031669     -0.023545
      4.57208      4.73901     -1.15318        -0.000071      0.017939     -0.012149
      4.57258      3.35682     -6.81202         0.000906      0.031185     -0.015989
      7.61819      4.73901     -1.15318         0.000071      0.017939     -0.012149
      7.61769      3.35682     -6.81202        -0.000906      0.031185     -0.015989
      1.52378     11.85796     -1.55492         0.000000     -0.178161      0.153125
      1.52378     10.50998     -7.01075         0.000000     -0.179622      0.084507
      4.57225     11.88909     -1.44409         0.008493     -0.181182      0.099556
      4.57012     10.49838     -7.08520         0.006028     -0.167508      0.133068
      7.61802     11.88909     -1.44409        -0.008493     -0.181182      0.099556
      7.62015     10.49838     -7.08520        -0.006028     -0.167508      0.133068
      9.14219      5.16050     -4.21584        -0.000621      0.165046     -0.114284
      0.00069      3.76519     -9.86091        -0.003689      0.163824     -0.112676
      3.04808      5.16050     -4.21584         0.000621      0.165046     -0.114284
      3.04688      3.76519     -9.86091         0.003689      0.163824     -0.112676
      6.09513      5.15834     -4.21755         0.000000      0.166052     -0.108821
      6.09513      3.76262     -9.85598         0.000000      0.163765     -0.114852
[...]
      7.61746      3.42238     -2.48109         0.001832      0.027305      0.109898
      7.61972      2.02960     -8.13459         0.003694      0.028773      0.122062
      1.52378      2.85907     -5.03954         0.000000      0.385720     -0.075798
      1.52378      1.45408    -10.68557         0.000000      0.400690     -0.069267
      4.57462      2.85722     -5.04193        -0.005250      0.393505     -0.073809
      4.56847      1.45023    -10.68611         0.003898      0.402817     -0.069343
      7.61565      2.85722     -5.04193         0.005250      0.393505     -0.073809
      7.62180      1.45023    -10.68611        -0.003898      0.402817     -0.069343
      0.00855      1.89222     -0.61688        -0.014691     -0.360958      0.055338
      9.13312      0.54424     -6.25968         0.037427     -0.429809      0.112514
      3.03902      1.89222     -0.61688         0.014691     -0.360958      0.055338
      3.05715      0.54424     -6.25968        -0.037427     -0.429809      0.112514
      6.09513      1.91398     -0.61566         0.000000     -0.390406      0.066035
      6.09513      0.53427     -6.26549         0.000000     -0.402405      0.080385
      1.52378     -1.01924     -4.16809         0.000000      0.103737     -0.095046
    total drift:                                0.000218      0.060155     -0.053823

  FREE ENERGIE OF THE ION-ELECTRON SYSTEM (eV)
  free  energy   TOTEN  =      -955.87210865 eV

  energy  without entropy=     -955.84846436  energy(sigma->0) =     -955.86028651

 writing wavefunctions