 vasp.6.4.2 20Jul23 (build Nov 12 2023 22:16:35) complex
 executed on              LinuxNV date 2025.03.18  16:52:29
 OpenACC runtime initialized ...    4 GPUs detected

 INCAR:
   PREC = Normal
   ENCUT = 450
   NELM = 500
   IBRION = -1
   ISPIN = 1
   NSW = 0
   ISIF = 2
   EDIFF = 1E-5
   EDIFFG = -5E-3
   ISTART = 0
   ICHARG = 0
   ISMEAR = 0
   SIGMA = 0.05
   LWAVE = .T.
   LCHARG = .T.
   LREAL = Auto
   LPLANE = .TRUE.
   NPAR = 1
   KPAR = 4
   NCORE = 1
   ALGO = All
   LHFCALC = .TRUE.
   HSE06 = .TRUE.
   HFSCREEN = 0.2
   TIME = 0.4
   AEXX = 0.32
   LMAXFOCK = 4
   PRECFOCK = Fast

 POTCAR:    PAW_PBE Ga_d 06Jul2010
 POTCAR:     PAW_PBE O 08Apr2002
 POTCAR:    PAW_PBE P 06Sep2000
 POTCAR:    PAW_PBE Ga_d 06Jul2010
   VRHFIN =Ga: s2p1

   TITEL  = PAW_PBE Ga_d 06Jul2010
   POMASS =   69.723; ZVAL   =   13.000    mass and valenz
   ENMAX  =  282.691; ENMIN  =  212.018 eV

   TITEL  = PAW_PBE O 08Apr2002
   POMASS =   16.000; ZVAL   =    6.000    mass and valenz
   ENMAX  =  400.000; ENMIN  =  300.000 eV

   TITEL  = PAW_PBE P 06Sep2000
   POMASS =   30.974; ZVAL   =    5.000    mass and valenz
   ENMAX  =  255.040; ENMIN  =  191.280 eV

 Optimization of the real space projectors (new method)

 maximal supplied QI-value         = 16.25
 optimisation between [QCUT,QGAM] = [ 10.73, 21.61] = [ 32.22,130.83] Ry
 Optimized for a Real-space Cutoff    1.42 Angstroem

   l    n(q)    QCUT    max X(q) W(low)/X(q) W(high)/X(q)  e(spline)
   2      8    10.726     7.143    0.22E-03    0.16E-03    0.73E-07
   2      8    10.726     5.586    0.40E-03    0.26E-03    0.10E-06
   0      9    10.726    12.382    0.25E-04    0.21E-05    0.37E-07
   0      9    10.726     6.622    0.42E-04    0.48E-05    0.77E-07
   1      9    10.726     7.935    0.27E-03    0.13E-04    0.16E-06
   1      9    10.726     2.425    0.23E-03    0.15E-04    0.14E-06
 Optimization of the real space projectors (new method)

[...]

   l    n(q)    QCUT    max X(q) W(low)/X(q) W(high)/X(q)  e(spline)
   0      8    10.645    20.381    0.38E-03    0.60E-03    0.15E-06
   0      8    10.645    15.268    0.40E-03    0.65E-03    0.17E-06
   1      7    10.645     5.964    0.30E-03    0.63E-03    0.18E-06
   1      7    10.645     5.382    0.24E-03    0.53E-03    0.16E-06
 Optimization of the real space projectors (new method)

 maximal supplied QI-value         = 19.84
 optimisation between [QCUT,QGAM] = [ 10.71, 21.63] = [ 32.15,130.99] Ry
 Optimized for a Real-space Cutoff    1.19 Angstroem

   l    n(q)    QCUT    max X(q) W(low)/X(q) W(high)/X(q)  e(spline)
   0      8    10.715   160.924    0.37E-03    0.37E-04    0.63E-07
   0      8    10.715   130.086    0.37E-03    0.36E-04    0.63E-07
   1      7    10.715    74.434    0.19E-03    0.56E-03    0.65E-07
   1      7    10.715    49.120    0.19E-03    0.55E-03    0.63E-07
  PAW_PBE Ga_d 06Jul2010                :
   PAW_PBE O 08Apr2002                  :
  PAW_PBE P 06Sep2000                   :

 POSCAR: Ga48 O72
  positions in direct lattice
  velocities in cartesian coordinates
 exchange correlation table for  LEXCH =        8
   RHO(1)=    0.500       N(1)  =     2000
   RHO(2)=  100.500       N(2)  =     4000

 ion  position               nearest neighbor table
   1  0.659  0.000  0.156-  85 1.94  83 1.95  79 1.95  67 2.01  61 2.08  65 2.08
   2  0.659  0.000  0.656-  86 1.94  84 1.95  80 1.95  68 2.02  62 2.08  66 2.08
   3  0.659  0.334  0.156-  87 1.94  81 1.94  79 1.95  69 2.00  63 2.08  61 2.08
   4  0.658  0.333  0.656-  88 1.94  82 1.95  80 1.95  70 2.03  64 2.07  62 2.07
   5  0.659  0.666  0.156-  89 1.94  81 1.94  83 1.95  71 2.00  63 2.08  65 2.08
   6  0.658  0.667  0.656-  90 1.94  82 1.95  84 1.95  72 2.03  64 2.07  66 2.07
   7  0.837  0.168  0.343-  91 1.92  75 1.95  73 1.95  61 1.99  69 2.08  67 2.09
   8  0.840  0.167  0.842-  92 1.94  74 1.95  76 1.95  62 2.02  70 2.06  68 2.08
   9  0.840  0.500  0.343-  93 1.94  77 1.96  75 1.96  63 2.02  71 2.07  69 2.07
  10  0.840  0.500  0.843-  94 1.94  78 1.95  76 1.95  64 2.01  72 2.08  70 2.08
  11  0.837  0.832  0.343-  95 1.92  77 1.95  73 1.95  65 1.99  71 2.08  67 2.09
  12  0.840  0.833  0.842-  96 1.94  74 1.95  78 1.95  66 2.02  72 2.06  68 2.08
  13  0.590  0.167  0.398-  80 1.84  55 1.84  57 1.84  61 1.87
  14  0.592  0.167  0.898-  58 1.84  79 1.84  56 1.84  62 1.87
  15  0.591  0.500  0.398-  82 1.84  59 1.85  57 1.85  63 1.87
  16  0.595  0.500  0.899-  81 1.83  60 1.84  58 1.84  64 1.87
  17  0.590  0.833  0.398-  84 1.84  55 1.84  59 1.84  65 1.87
  18  0.592  0.833  0.898-  60 1.84  83 1.84  56 1.84  66 1.87
  19  0.906  0.000  0.100-  74 1.83  53 1.85  49 1.85  67 1.87
  20  0.910  0.000  0.602-  73 1.84  54 1.85  50 1.85  68 1.87
  21  0.908  0.333  0.103-  76 1.84  51 1.85  49 1.85  69 1.87
  22  0.908  0.334  0.602-  75 1.84  52 1.85  50 1.85  70 1.87
  23  0.908  0.667  0.103-  78 1.84  51 1.85  53 1.85  71 1.87
  24  0.908  0.666  0.602-  77 1.84  52 1.85  54 1.85  72 1.87
  25  0.159  0.166  0.153- 116 1.93  49 1.96 115 1.96  97 2.01 103 2.04  99 2.11
  26  0.161  0.178  0.663-  50 1.96 117 1.96 100 1.99 104 2.10  98 2.12 120 2.29
  27  0.157  0.500  0.159-  51 1.94 116 1.96 118 1.96 105 2.03 101 2.07  99 2.07
  28  0.159  0.500  0.659- 117 1.92 119 1.92  52 1.95 106 2.04 102 2.07 100 2.07
  29  0.159  0.834  0.153- 118 1.93  53 1.96 115 1.96  97 2.01 107 2.04 101 2.11
  30  0.161  0.822  0.663-  54 1.96 119 1.96 102 1.99 108 2.10  98 2.12 120 2.29
  31  0.341  0.000  0.340-  55 1.94 109 1.97 113 1.97 103 2.05 107 2.05  97 2.06
  32  0.342  0.000  0.848-  56 1.94 110 1.96 114 1.96  98 2.02 104 2.08 108 2.08
  33  0.340  0.335  0.343-  57 1.95 111 1.95 109 1.96  99 2.02 105 2.06 103 2.08
  34  0.345  0.335  0.848-  58 1.94 112 1.94 110 1.96 104 1.99 100 2.07 106 2.07
  35  0.340  0.665  0.343-  59 1.95 111 1.95 113 1.96 101 2.02 105 2.06 107 2.08
  36  0.345  0.665  0.848-  60 1.94 112 1.94 114 1.96 108 1.99 102 2.07 106 2.07
  37  0.076  0.000  0.372-  91 1.84  95 1.84  97 1.87 120 2.19
  38  0.090  0.000  0.896- 115 1.83  96 1.85  92 1.85  98 1.86
  39  0.090  0.333  0.399- 117 1.84  93 1.85  91 1.85  99 1.88
  40  0.089  0.333  0.899- 116 1.84  94 1.84  92 1.84 100 1.87
  41  0.090  0.667  0.399- 119 1.84  93 1.85  95 1.85 101 1.88
  42  0.089  0.667  0.899- 118 1.84  94 1.84  96 1.84 102 1.87
  43  0.410  0.167  0.104- 110 1.83  85 1.84  87 1.84 103 1.87
  44  0.409  0.166  0.606-  86 1.85  88 1.85 109 1.87 104 1.88 120 2.91
  45  0.409  0.500  0.105- 112 1.84  89 1.84  87 1.84 105 1.87
  46  0.408  0.500  0.604- 111 1.84  90 1.85  88 1.85 106 1.87
  47  0.410  0.833  0.104- 114 1.83  85 1.84  89 1.84 107 1.87
  48  0.409  0.834  0.606-  86 1.85  90 1.85 113 1.87 108 1.88 120 2.91
  49  0.995  0.166  0.124-  21 1.85  19 1.85  25 1.96
  50  0.997  0.167  0.626-  20 1.85  22 1.85  26 1.96
  51  0.995  0.500  0.127-  21 1.85  23 1.85  27 1.94
  52  0.995  0.500  0.629-  22 1.85  24 1.85  28 1.95
  53  0.995  0.834  0.124-  23 1.85  19 1.85  29 1.96
  54  0.997  0.833  0.626-  20 1.85  24 1.85  30 1.96
  55  0.503  0.000  0.372-  13 1.84  17 1.84  31 1.94
  56  0.505  0.000  0.876-  14 1.84  18 1.84  32 1.94
  57  0.503  0.334  0.373-  13 1.84  15 1.85  33 1.95
  58  0.507  0.335  0.877-  16 1.84  14 1.84  34 1.94
  59  0.503  0.666  0.373-  17 1.84  15 1.85  35 1.95
  60  0.507  0.665  0.877-  16 1.84  18 1.84  36 1.94
[...]
 106  0.329  0.500  0.723-  46 1.87  28 2.04  36 2.07  34 2.07
 107  0.328  0.832  0.220-  47 1.87  29 2.04  31 2.05  35 2.08
 108  0.336  0.826  0.730-  48 1.88  36 1.99  32 2.08  30 2.10
 109  0.336  0.166  0.446-  44 1.87  33 1.96  31 1.97
 110  0.332  0.168  0.949-  43 1.83  32 1.96  34 1.96
 111  0.332  0.500  0.447-  46 1.84  35 1.95  33 1.95
 112  0.333  0.500  0.948-  45 1.84  36 1.94  34 1.94
 113  0.336  0.834  0.446-  48 1.87  35 1.96  31 1.97
 114  0.332  0.832  0.949-  47 1.83  32 1.96  36 1.96
 115  0.169  0.000  0.050-  38 1.83  29 1.96  25 1.96
 116  0.167  0.335  0.055-  40 1.84  25 1.93  27 1.96
 117  0.168  0.341  0.555-  39 1.84  28 1.92  26 1.96
 118  0.167  0.665  0.055-  42 1.84  29 1.93  27 1.96
 119  0.168  0.659  0.555-  41 1.84  28 1.92  30 1.96
 120  0.201  0.000  0.542-  37 2.19  30 2.29  26 2.29  44 2.91  48 2.91

  LATTYP: Found a simple monoclinic cell.
 ALAT       =    11.6348202465
 B/A-ratio  =     0.7858051831
 C/A-ratio  =     1.0554931797
 COS(beta)  =    -0.2379290539

  Lattice vectors:

 A1 = (   0.0000000000,  -2.7682617730, -11.3006977184)
 A2 = (  -9.1427020537,   0.0000000000,   0.0000000000)
 A3 = (   0.0000000000,  12.2804734172,   0.0000000000)

Analysis of symmetry for initial positions (statically):
 Subroutine PRICEL returns:
 Original cell was already a primitive cell.

 Routine SETGRP: Setting up the symmetry group for a
 simple monoclinic supercell.

 Subroutine GETGRP returns: Found  2 space group operations
 (whereof  2 operations were pure point group operations)
 out of a pool of  4 trial point group operations.

The static configuration has the point symmetry C_1h.

Analysis of symmetry for dynamics (positions and initial velocities):
 Subroutine PRICEL returns:
 Original cell was already a primitive cell.

 Routine SETGRP: Setting up the symmetry group for a
 simple monoclinic supercell.

 Subroutine GETGRP returns: Found  2 space group operations
 (whereof  2 operations were pure point group operations)
 out of a pool of  4 trial point group operations.

The dynamic configuration has the point symmetry C_1h.

 Subroutine INISYM returns: Found  2 space group operations
 (whereof  2 operations are pure point group operations),
 and found     1 'primitive' translations

                                     Primitive cell

  volume of cell :    1268.8052

  direct lattice vectors                    reciprocal lattice vectors
     0.000000000 12.280473417  0.000000000     0.000000000  0.081430085 -0.019947423
     9.142702054  0.000000000  0.000000000     0.109376855 -0.000000000  0.000000000
     0.000000000 -2.768261773-11.300697718     0.000000000  0.000000000 -0.088490111

  length of vectors
    12.280473417  9.142702054 11.634820246     0.083837691  0.109376855  0.088490111

  position of ions in fractional coordinates (direct lattice)
     0.658915992  0.000000000  0.155971415
     0.659418794  0.000000000  0.656021338
     0.658740305  0.333926915  0.156288651
     0.658154332  0.333376328  0.656170845
     0.658740305  0.666073085  0.156288651
     0.658154332  0.666623672  0.656170845
     0.836756255  0.167990491  0.342708789
     0.839997285  0.167229535  0.842175955
     0.840091264  0.500000000  0.342705328
     0.840316312  0.500000000  0.843031019
     0.836756255  0.832009509  0.342708789
     0.839997285  0.832770465  0.842175955
     0.589845555  0.167159049  0.397792861
     0.592091107  0.166556088  0.898011360
     0.590756978  0.500000000  0.397893376
     0.594767158  0.500000000  0.899071136
     0.589845555  0.832840951  0.397792861
     0.592091107  0.833443912  0.898011360
     0.906075606  0.000000000  0.099567576
     0.909524062  0.000000000  0.601649151
     0.907765203  0.332926196  0.102647921
     0.907675381  0.333596215  0.601797285
[...]
     52     -16.9120      2.00000
     53     -16.8943      2.00000
     54     -16.8913      2.00000
     55     -16.8777      2.00000
     56     -16.8775      2.00000
     57     -16.8464      2.00000
     58     -16.8293      2.00000
     59     -16.8076      2.00000
     60     -16.8067      2.00000
[...]
    619      16.0442      0.00000
    620      16.1308      0.00000
    621      16.2699      0.00000
    622      16.3801      0.00000
    623      16.4318      0.00000
    624      16.5079      0.00000
    625      16.6585      0.00000
    626      16.7113      0.00000
    627      16.8370      0.00000
    628      16.8920      0.00000
    629      16.9711      0.00000
    630      17.0359      0.00000
    631      17.1835      0.00000
    632      17.2426      0.00000
    633      17.5397      0.00000

 soft charge-density along one line, spin component            1
         0         1         2         3         4         5         6         7         8         9
 total charge-density along one line

------------------------ aborting loop because EDIFF is reached ----------------------------------------

  FORCE on cell =-STRESS in cart. coord.  units (eV):
  Direction    XX          YY          ZZ          XY          YZ          ZX
  Alpha Z  5529.70323  5529.70323  5529.70323
  Ewald  -25014.62870-32067.56643-31589.26473     0.00000 -1593.75943    -0.00000
  Hartree 14161.47873  9756.48677 10019.59048     0.00005 -1093.43655     0.00017
  E(xc)   -4096.42524 -4099.26217 -4098.88217    -0.00001    -0.33039    -0.00000
  Local   -6087.13377  5225.24700  4437.17869    -0.00066  2658.25906    -0.00042
  n-local  6061.38045  5998.93769  6021.06437     0.00010    -6.85393     0.00004
  augment  5494.92046  5518.97465  5526.15745    -0.00003     6.27886    -0.00000
  Kinetic 12363.78606 12554.04448 12577.42662     0.00092    28.33923     0.00018
  Fock    -8438.92193 -8443.72724 -8439.00988     0.00003     0.21836     0.00002
  Total     -25.84072   -27.16202   -16.03594     0.00000    -1.28479     0.00000
  in kB     -32.63024   -34.29871   -20.24930     0.00000    -1.62236     0.00000

 VOLUME and BASIS-vectors are now :
  energy-cutoff  :      450.00
  volume of cell :     1268.81
      direct lattice vectors                 reciprocal lattice vectors
     0.000000000 12.280473417  0.000000000     0.000000000  0.081430085 -0.019947423
     9.142702054  0.000000000  0.000000000     0.109376855 -0.000000000  0.000000000
     0.000000000 -2.768261773-11.300697718     0.000000000  0.000000000 -0.088490111

  length of vectors
    12.280473417  9.142702054 11.634820246     0.083837691  0.109376855  0.088490111

 FORCES acting on ions:
    Electron-Ion                     Ewald-Force                    Non-Local-Force
   0.407E-04 0.434E+02 -.728E+02   -.343E-13 -.426E+02 0.775E+02   0.000E+00 -.595E+00 -.453E+01
   -.180E-03 0.393E+02 -.997E+02   0.861E-13 -.391E+02 0.104E+03   0.000E+00 -.453E-01 -.426E+01
   0.745E+01 0.507E+02 -.758E+02   -.696E+01 -.495E+02 0.802E+02   -.445E+00 -.952E+00 -.418E+01
   0.536E+01 0.472E+02 -.948E+02   -.526E+01 -.470E+02 0.994E+02   -.915E-01 -.144E+00 -.427E+01
   -.745E+01 0.507E+02 -.758E+02   0.696E+01 -.495E+02 0.802E+02   0.445E+00 -.952E+00 -.418E+01
   -.536E+01 0.472E+02 -.948E+02   0.526E+01 -.470E+02 0.994E+02   0.915E-01 -.144E+00 -.427E+01
   0.185E+02 -.652E+02 0.140E+03   -.179E+02 0.654E+02 -.145E+03   -.578E+00 -.232E+00 0.390E+01
   0.741E+01 -.677E+02 0.663E+02   -.719E+01 0.670E+02 -.705E+02   -.203E+00 0.611E+00 0.393E+01
   0.166E-03 -.720E+02 0.114E+03   0.208E-13 0.717E+02 -.118E+03   0.000E+00 0.212E+00 0.391E+01
   0.190E-03 -.637E+02 0.708E+02   -.123E-12 0.629E+02 -.752E+02   0.000E+00 0.633E+00 0.418E+01
   -.185E+02 -.652E+02 0.140E+03   0.179E+02 0.654E+02 -.145E+03   0.578E+00 -.232E+00 0.390E+01
   -.741E+01 -.677E+02 0.663E+02   0.719E+01 0.670E+02 -.705E+02   0.203E+00 0.611E+00 0.393E+01
   0.495E+01 -.336E+02 0.497E+02   -.500E+01 0.314E+02 -.514E+02   0.419E-01 0.192E+01 0.167E+01
   0.784E+01 -.405E+02 0.522E+01   -.761E+01 0.381E+02 -.725E+01   -.207E+00 0.219E+01 0.192E+01
   0.924E-04 -.337E+02 0.457E+02   -.892E-13 0.318E+02 -.472E+02   0.000E+00 0.171E+01 0.139E+01
   -.931E-05 -.430E+02 0.555E+01   0.349E-14 0.399E+02 -.757E+01   0.000E+00 0.269E+01 0.188E+01
   -.495E+01 -.336E+02 0.497E+02   0.500E+01 0.314E+02 -.514E+02   -.419E-01 0.192E+01 0.167E+01
   -.784E+01 -.405E+02 0.522E+01   0.761E+01 0.381E+02 -.725E+01   0.207E+00 0.219E+01 0.192E+01
   -.750E-04 0.359E+02 -.272E+02   -.817E-13 -.337E+02 0.294E+02   0.000E+00 -.199E+01 -.197E+01
   -.500E-03 -.632E+02 -.452E+02   0.353E-13 0.648E+02 0.470E+02   0.000E+00 -.141E+01 -.170E+01
   0.511E+00 0.205E+02 -.163E+02   -.469E+00 -.186E+02 0.181E+02   -.175E-01 -.169E+01 -.171E+01
   0.303E+02 0.269E+01 -.384E+02   -.299E+02 -.921E+00 0.400E+02   -.370E+00 -.159E+01 -.156E+01
   -.511E+00 0.205E+02 -.163E+02   0.469E+00 -.186E+02 0.181E+02   0.175E-01 -.169E+01 -.171E+01
   -.303E+02 0.269E+01 -.384E+02   0.299E+02 -.921E+00 0.400E+02   0.370E+00 -.159E+01 -.156E+01
   -.239E+02 0.349E+02 -.621E+02   0.226E+02 -.344E+02 0.662E+02   0.113E+01 -.385E+00 -.390E+01
   0.201E+03 0.263E+02 -.213E+03   -.203E+03 -.236E+02 0.221E+03   0.274E+01 -.255E+01 -.844E+01
   0.256E-04 0.490E+02 -.578E+02   0.270E-13 -.489E+02 0.620E+02   0.000E+00 0.608E-01 -.398E+01
   0.308E-03 0.479E+02 -.854E+02   0.288E-13 -.464E+02 0.928E+02   0.000E+00 -.117E+01 -.696E+01
   0.239E+02 0.349E+02 -.621E+02   -.226E+02 -.344E+02 0.662E+02   -.113E+01 -.385E+00 -.390E+01
   -.201E+03 0.263E+02 -.213E+03   0.203E+03 -.236E+02 0.221E+03   -.274E+01 -.255E+01 -.844E+01
   -.332E-04 0.345E+02 0.138E+03   0.409E-13 -.325E+02 -.142E+03   0.000E+00 -.187E+01 0.331E+01
   -.420E-04 0.955E+01 0.328E+01   0.921E-13 -.996E+01 -.795E+01   0.000E+00 0.284E+00 0.442E+01
   0.233E+02 -.965E+00 0.115E+03   -.227E+02 0.649E+00 -.120E+03   -.570E+00 0.251E+00 0.407E+01
   -.741E+00 -.644E+01 0.613E+02   -.788E+00 0.796E+01 -.644E+02   0.140E+01 -.148E+01 0.292E+01
   -.233E+02 -.965E+00 0.115E+03   0.227E+02 0.649E+00 -.120E+03   0.570E+00 0.251E+00 0.407E+01
   0.741E+00 -.644E+01 0.613E+02   0.788E+00 0.796E+01 -.644E+02   -.140E+01 -.148E+01 0.292E+01
   -.211E-03 -.759E+02 0.272E+03   -.174E-15 0.810E+02 -.281E+03   0.000E+00 -.491E+01 0.874E+01
   -.116E-03 -.496E+02 -.305E+02   0.115E-12 0.496E+02 0.279E+02   0.000E+00 -.398E-01 0.243E+01
   0.675E+02 -.687E+02 0.879E+02   -.659E+02 0.667E+02 -.890E+02   -.142E+01 0.183E+01 0.107E+01
   0.958E+01 -.568E+02 0.965E+01   -.934E+01 0.545E+02 -.116E+02   -.201E+00 0.210E+01 0.181E+01
   -.675E+02 -.687E+02 0.879E+02   0.659E+02 0.667E+02 -.890E+02   0.142E+01 0.183E+01 0.107E+01
   -.958E+01 -.568E+02 0.965E+01   0.934E+01 0.545E+02 -.116E+02   0.201E+00 0.210E+01 0.181E+01
   0.132E+01 0.582E+02 -.257E+02   -.118E+01 -.569E+02 0.283E+02   -.121E+00 -.124E+01 -.244E+01
   0.257E+02 0.123E+03 -.695E+02   -.254E+02 -.119E+03 0.694E+02   -.191E+00 -.318E+01 0.812E-01
   -.357E-04 0.682E+02 -.251E+02   -.315E-13 -.660E+02 0.271E+02   0.000E+00 -.203E+01 -.183E+01
   0.144E-03 0.738E+02 -.471E+02   -.837E-13 -.713E+02 0.485E+02   0.000E+00 -.220E+01 -.134E+01
   -.132E+01 0.582E+02 -.257E+02   0.118E+01 -.569E+02 0.283E+02   0.121E+00 -.124E+01 -.244E+01
   -.257E+02 0.123E+03 -.695E+02   0.254E+02 -.119E+03 0.694E+02   0.191E+00 -.318E+01 0.812E-01
   -.435E+01 -.284E+02 0.143E+02   0.423E+01 0.363E+02 -.174E+02   0.968E-01 -.677E+01 0.267E+01
   0.384E+02 -.702E+02 -.137E+02   -.386E+02 0.783E+02 0.108E+02   0.234E+00 -.694E+01 0.251E+01
   0.451E-04 -.238E+02 0.209E+02   -.457E-13 0.306E+02 -.244E+02   0.000E+00 -.585E+01 0.297E+01
   0.154E-03 -.290E+02 0.115E+02   -.109E-12 0.367E+02 -.158E+02   0.000E+00 -.661E+01 0.369E+01
   0.435E+01 -.284E+02 0.143E+02   -.423E+01 0.363E+02 -.174E+02   -.968E-01 -.677E+01 0.267E+01
   -.384E+02 -.702E+02 -.137E+02   0.386E+02 0.783E+02 0.108E+02   -.234E+00 -.694E+01 0.251E+01
   -.456E-04 0.276E+02 0.434E+00   -.408E-13 -.347E+02 0.301E+01   0.000E+00 0.608E+01 -.297E+01
   -.646E-05 0.292E+02 -.248E+02   0.137E-13 -.370E+02 0.281E+02   0.000E+00 0.667E+01 -.290E+01
   0.131E+01 0.285E+02 -.548E+01   -.113E+01 -.360E+02 0.924E+01   -.141E+00 0.647E+01 -.325E+01
   -.388E+00 0.244E+02 -.214E+02   0.395E+00 -.320E+02 0.247E+02   -.923E-02 0.652E+01 -.284E+01
   -.131E+01 0.285E+02 -.548E+01   0.113E+01 -.360E+02 0.924E+01   0.141E+00 0.647E+01 -.325E+01
   0.388E+00 0.244E+02 -.214E+02   -.395E+00 -.320E+02 0.247E+02   0.923E-02 0.652E+01 -.284E+01
[...]
   0.643E+01 -.475E+02 -.240E+02   -.729E+01 0.448E+02 0.196E+02   0.748E+00 0.230E+01 0.374E+01
   -.324E+02 -.308E+02 -.759E+02   0.338E+02 0.280E+02 0.730E+02   -.118E+01 0.240E+01 0.258E+01
   0.149E+02 0.145E+03 0.778E+02   -.148E+02 -.154E+03 -.752E+02   -.455E-01 0.829E+01 -.223E+01
   0.264E+01 0.137E+03 0.421E+02   -.249E+01 -.150E+03 -.376E+02   -.129E+00 0.115E+02 -.382E+01
   0.732E-04 0.131E+03 0.720E+02   0.707E-14 -.143E+03 -.692E+02   0.000E+00 0.106E+02 -.245E+01
   0.209E-05 0.138E+03 0.559E+02   0.845E-14 -.151E+03 -.526E+02   0.000E+00 0.117E+02 -.279E+01
   -.149E+02 0.145E+03 0.778E+02   0.148E+02 -.154E+03 -.752E+02   0.455E-01 0.829E+01 -.223E+01
   -.264E+01 0.137E+03 0.421E+02   0.249E+01 -.150E+03 -.376E+02   0.129E+00 0.115E+02 -.382E+01
   -.507E-04 -.128E+03 -.623E+02   0.187E-13 0.141E+03 0.581E+02   0.000E+00 -.116E+02 0.362E+01
   -.998E+01 -.123E+03 -.609E+02   0.114E+02 0.136E+03 0.574E+02   -.123E+01 -.113E+02 0.299E+01
   0.489E+02 -.122E+03 -.800E+02   -.501E+02 0.136E+03 0.775E+02   0.110E+01 -.113E+02 0.214E+01
   0.998E+01 -.123E+03 -.609E+02   -.114E+02 0.136E+03 0.574E+02   0.123E+01 -.113E+02 0.299E+01
   -.489E+02 -.122E+03 -.800E+02   0.501E+02 0.136E+03 0.775E+02   -.110E+01 -.113E+02 0.214E+01
   -.319E-04 -.371E+02 -.459E+02   -.213E-13 0.327E+02 0.429E+02   0.000E+00 0.380E+01 0.288E+01
   0.561E-03 0.148E+02 0.107E+02   0.242E-12 0.340E-11 -.127E-11   -.444E-15 -.140E+02 -.926E+01

 POSITION                                       TOTAL-FORCE (eV/Angst)
      0.00000      7.66003     -1.76259        -0.000000      0.060194      0.009148
      0.00000      6.28194     -7.41350        -0.000000      0.061619      0.011838
      3.05299      7.65699     -1.76617         0.012816      0.075917     -0.001505
      3.04796      6.26599     -7.41519         0.005039      0.061633      0.017748
      6.08971      7.65699     -1.76617        -0.012816      0.075917     -0.001505
      6.09474      6.26599     -7.41519        -0.005039      0.061633      0.017748
      1.53589      9.32706     -3.87285         0.025660     -0.053079      0.009685
      1.52893      7.98420     -9.51718         0.006409     -0.076151     -0.001835
      4.57135      9.36802     -3.87281        -0.000000     -0.078316      0.005711
      4.57135      7.98575     -9.52684        -0.000000     -0.069892     -0.005278
      7.60682      9.32706     -3.87285        -0.025660     -0.053079      0.009685
      7.61377      7.98420     -9.51718        -0.006409     -0.076151     -0.001835
      1.52829      6.14239     -4.49534        -0.002825     -0.049520      0.020059
      1.52277      4.78523    -10.14815         0.007063     -0.030502     -0.001750
      4.57135      6.15330     -4.49647        -0.000000     -0.040708      0.029244
      4.57135      4.81516    -10.16013        -0.000000     -0.052140      0.000383
      7.61442      6.14239     -4.49534         0.002825     -0.049520      0.020059
      7.61993      4.78523    -10.14815        -0.007063     -0.030502     -0.001750
      0.00000     10.85141     -1.12518        -0.000000      0.024557      0.024251
      0.00000      9.50386     -6.79906        -0.000000     -0.003508     -0.013249
      3.04385     10.86363     -1.15999         0.009514      0.011333     -0.003880
      3.04997      9.48075     -6.80073         0.019643      0.003310     -0.026125
      6.09886     10.86363     -1.15999        -0.009514      0.011333     -0.003880
      6.09273      9.48075     -6.80073        -0.019643      0.003310     -0.026125
      1.52073      1.52735     -1.72340        -0.039263      0.078042     -0.003129
      1.62685      0.14103     -7.49453         0.347140     -0.006818     -0.194388
      4.57135      1.49127     -1.79636        -0.000000      0.081233      0.023362
      4.57135      0.12606     -7.44612        -0.000000      0.097968      0.072043
      7.62197      1.52735     -1.72340         0.039263      0.078042     -0.003129
      7.51585      0.14103     -7.49453        -0.347140     -0.006818     -0.194388
      0.00000      3.24956     -3.84035        -0.000000     -0.001365     -0.017841
      0.00000      1.85851     -9.57808        -0.000000     -0.057256     -0.058831
      3.05868      3.22420     -3.88034        -0.009564     -0.040489     -0.023784
      3.05865      1.89206     -9.57859        -0.040235     -0.027308      0.010553
      6.08402      3.22420     -3.88034         0.009564     -0.040489     -0.023784
      6.08405      1.89206     -9.57859         0.040235     -0.027308      0.010553
      0.00000     -0.09940     -4.20723        -0.000000     -0.036735      0.342901
      0.00000     -1.37877    -10.12044        -0.000000      0.022427     -0.018818
      3.04499     -0.00028     -4.51017         0.048942     -0.014026      0.051121
      3.04886     -1.38919    -10.15660         0.019848     -0.010907      0.002080
      6.09771     -0.00028     -4.51017        -0.048942     -0.014026      0.051121
      6.09384     -1.38919    -10.15660        -0.019848     -0.010907      0.002080
      1.52553      4.75166     -1.17815         0.007587     -0.004067     -0.003331
      1.51703      3.34645     -6.85107         0.064567      0.125725      0.000770
      4.57135      4.73569     -1.18338        -0.000000      0.013108     -0.005616
      4.57135      3.33738     -6.82371        -0.000000      0.041676      0.004298
      7.61718      4.75166     -1.17815        -0.007587     -0.004067     -0.003331
      7.62567      3.34645     -6.85107        -0.064567      0.125725      0.000770
      1.51623     11.87904     -1.39911        -0.001862     -0.194048      0.089614
      1.52978     10.50605     -7.07323         0.011250     -0.168153      0.095739
      4.57135     11.86795     -1.44022        -0.000000     -0.164020      0.105358
      4.57135     10.48179     -7.10698        -0.000000     -0.173070      0.129591
      7.62647     11.87904     -1.39911         0.001862     -0.194048      0.089614
      7.61292     10.50605     -7.07323        -0.011250     -0.168153      0.095739
      0.00000      5.15143     -4.20763        -0.000000      0.179442     -0.100629
      0.00000      3.77663     -9.89850        -0.000000      0.187262     -0.096932
      3.05162      5.14113     -4.21188         0.008333      0.200517     -0.113745
      3.06020      3.80103     -9.90759        -0.004949      0.180037     -0.097532
      6.09108      5.14113     -4.21188        -0.008333      0.200517     -0.113745
      6.08251      3.80103     -9.90759         0.004949      0.180037     -0.097532
[...]
      4.57135      2.03509     -8.16786        -0.000000      0.058411      0.104401
      7.60974      3.41509     -2.48472         0.033458      0.050202      0.119925
      7.55477      2.10171     -8.25308        -0.015441      0.038514      0.109118
      1.51512      2.88836     -5.04035        -0.019164      0.278494     -0.087075
      1.53315      1.45378    -10.72645        -0.003187      0.427597     -0.097154
      4.57135      2.84546     -5.04581        -0.000000      0.375653     -0.055234
      4.57135      1.46050    -10.71650        -0.000000      0.425002     -0.061566
      7.62758      2.88836     -5.04035         0.019164      0.278494     -0.087075
      7.60956      1.45378    -10.72645         0.003187      0.427597     -0.097154
      0.00000      1.93684     -0.56283        -0.000000     -0.429592      0.091962
      3.06137      1.90093     -0.61743        -0.049187     -0.419128      0.071654
      3.11394      0.52771     -6.26995         0.004985     -0.414283      0.019233
      6.08134      1.90093     -0.61743         0.049187     -0.419128      0.071654
      6.02876      0.52771     -6.26995        -0.004985     -0.414283      0.019233
      0.00000      0.97269     -6.12136        -0.000000     -0.329372      0.018134
    total drift:                                0.000561     -0.082659      0.058243

  FREE ENERGIE OF THE ION-ELECTRON SYSTEM (eV)
  free  energy   TOTEN  =      -950.50294063 eV

  energy  without entropy=     -950.48532799  energy(sigma->0) =     -950.49413431

 writing wavefunctions