 vasp.6.4.2 20Jul23 (build Nov 12 2023 22:16:35) complex
 executed on              LinuxNV date 2025.03.28  19:38:17
 OpenACC runtime initialized ...    4 GPUs detected

 INCAR:
   PREC = Normal
   ENCUT = 450
   NELM = 500
   IBRION = -1
   ISPIN = 1
   NSW = 0
   ISIF = 2
   EDIFF = 1E-5
   EDIFFG = -5E-3
   ISTART = 0
   ICHARG = 0
   ISMEAR = 0
   SIGMA = 0.05
   LWAVE = .T.
   LCHARG = .T.
   LREAL = Auto
   LPLANE = .TRUE.
   NPAR = 1
   KPAR = 4
   NCORE = 1
   ALGO = All
   LHFCALC = .TRUE.
   HSE06 = .TRUE.
   HFSCREEN = 0.2
   TIME = 0.4
   AEXX = 0.32
   LMAXFOCK = 4
   PRECFOCK = Fast

 POTCAR:    PAW_PBE Ga_d 06Jul2010
 POTCAR:     PAW_PBE O 08Apr2002
 POTCAR:    PAW_PBE P 06Sep2000
 POTCAR:    PAW_PBE Ga_d 06Jul2010
   VRHFIN =Ga: s2p1

   TITEL  = PAW_PBE Ga_d 06Jul2010
   POMASS =   69.723; ZVAL   =   13.000    mass and valenz
   ENMAX  =  282.691; ENMIN  =  212.018 eV

   TITEL  = PAW_PBE O 08Apr2002
   POMASS =   16.000; ZVAL   =    6.000    mass and valenz
   ENMAX  =  400.000; ENMIN  =  300.000 eV

   TITEL  = PAW_PBE P 06Sep2000
   POMASS =   30.974; ZVAL   =    5.000    mass and valenz
   ENMAX  =  255.040; ENMIN  =  191.280 eV

 Optimization of the real space projectors (new method)

 maximal supplied QI-value         = 16.25
 optimisation between [QCUT,QGAM] = [ 10.73, 21.61] = [ 32.22,130.83] Ry
 Optimized for a Real-space Cutoff    1.42 Angstroem

   l    n(q)    QCUT    max X(q) W(low)/X(q) W(high)/X(q)  e(spline)
   2      8    10.726     7.143    0.22E-03    0.16E-03    0.73E-07
   2      8    10.726     5.586    0.40E-03    0.26E-03    0.10E-06
   0      9    10.726    12.382    0.25E-04    0.21E-05    0.37E-07
   0      9    10.726     6.622    0.42E-04    0.48E-05    0.77E-07
   1      9    10.726     7.935    0.27E-03    0.13E-04    0.16E-06
   1      9    10.726     2.425    0.23E-03    0.15E-04    0.14E-06
 Optimization of the real space projectors (new method)

[...]

   l    n(q)    QCUT    max X(q) W(low)/X(q) W(high)/X(q)  e(spline)
   0      8    10.645    20.381    0.38E-03    0.60E-03    0.15E-06
   0      8    10.645    15.268    0.40E-03    0.65E-03    0.17E-06
   1      7    10.645     5.964    0.30E-03    0.63E-03    0.18E-06
   1      7    10.645     5.382    0.24E-03    0.53E-03    0.16E-06
 Optimization of the real space projectors (new method)

 maximal supplied QI-value         = 19.84
 optimisation between [QCUT,QGAM] = [ 10.71, 21.63] = [ 32.15,130.99] Ry
 Optimized for a Real-space Cutoff    1.19 Angstroem

   l    n(q)    QCUT    max X(q) W(low)/X(q) W(high)/X(q)  e(spline)
   0      8    10.715   160.924    0.37E-03    0.37E-04    0.63E-07
   0      8    10.715   130.086    0.37E-03    0.36E-04    0.63E-07
   1      7    10.715    74.434    0.19E-03    0.56E-03    0.65E-07
   1      7    10.715    49.120    0.19E-03    0.55E-03    0.63E-07
  PAW_PBE Ga_d 06Jul2010                :
   PAW_PBE O 08Apr2002                  :
  PAW_PBE P 06Sep2000                   :

 POSCAR: Ga48 O72
  positions in direct lattice
  velocities in cartesian coordinates
 exchange correlation table for  LEXCH =        8
   RHO(1)=    0.500       N(1)  =     2000
   RHO(2)=  100.500       N(2)  =     4000

 ion  position               nearest neighbor table
   1  0.663  0.993  0.152-  82 1.92  66 1.93  78 1.94  84 1.94  64 2.08  60 2.29
   2  0.660  0.999  0.659-  85 1.94  79 1.94  83 1.97  67 2.02  65 2.05  61 2.09
   3  0.663  0.340  0.152-  80 1.92  68 1.93  78 1.94  86 1.94  62 2.08  60 2.29
   4  0.660  0.334  0.659-  87 1.94  79 1.94  81 1.97  69 2.02  63 2.05  61 2.09
   5  0.660  0.667  0.156-  88 1.94  80 1.94  82 1.94  70 2.04  62 2.08  64 2.08
   6  0.661  0.667  0.655-  89 1.94  81 1.96  83 1.96  71 2.01  63 2.08  65 2.08
   7  0.842  0.167  0.846-  73 1.94  75 1.94  90 1.94  61 2.02  67 2.08  69 2.08
   8  0.846  0.501  0.335-  91 1.92  68 1.96  76 1.97  62 2.03  70 2.03  74 2.19
   9  0.843  0.500  0.844-  92 1.94  77 1.94  75 1.96  63 2.03  69 2.07  71 2.09
  10  0.846  0.832  0.335-  93 1.92  66 1.96  76 1.97  64 2.03  70 2.03  72 2.19
  11  0.843  0.833  0.844-  94 1.94  77 1.94  73 1.96  65 2.03  67 2.07  71 2.09
  12  0.590  0.167  0.403-  54 1.83  56 1.83  79 1.83  60 1.93
  13  0.592  0.167  0.900-  55 1.84  57 1.84  78 1.86  61 1.87
  14  0.593  0.500  0.397-  58 1.84  81 1.85  56 1.85  62 1.87
  15  0.589  0.501  0.894-  80 1.83  59 1.84  57 1.84  63 1.87
  16  0.593  0.833  0.397-  58 1.84  83 1.85  54 1.85  64 1.87
  17  0.589  0.832  0.894-  82 1.83  59 1.84  55 1.84  65 1.87
  18  0.912  0.999  0.104-  66 1.84  52 1.84  73 1.85  48 1.85
  19  0.911  0.001  0.607-  53 1.82  49 1.84  67 1.85  72 1.90
  20  0.912  0.335  0.104-  68 1.84  50 1.84  75 1.85  48 1.85
  21  0.911  0.332  0.607-  51 1.82  49 1.84  69 1.85  74 1.90
  22  0.912  0.667  0.100-  77 1.84  50 1.84  52 1.84  70 1.87
  23  0.908  0.667  0.600-  76 1.84  51 1.85  53 1.85  71 1.87
  24  0.162  0.167  0.159- 113 1.95 115 1.95  48 1.98 101 2.03  95 2.06  97 2.06
  25  0.163  0.167  0.656- 114 1.94 116 1.94  49 1.97 102 2.01  96 2.09  98 2.09
  26  0.162  0.500  0.158-  50 1.93 115 1.96 117 1.97 103 2.02  97 2.05  99 2.08
  27  0.159  0.499  0.654- 116 1.92 118 1.94  51 1.97 104 2.03 100 2.10  98 2.10
  28  0.162  0.834  0.158-  52 1.93 113 1.96 117 1.97 105 2.02  95 2.05  99 2.08
  29  0.159  0.834  0.654- 114 1.92 118 1.94  53 1.97 106 2.03 100 2.10  96 2.10
  30  0.341  0.999  0.344- 111 1.95 107 1.95  54 1.97  95 2.00 105 2.08 101 2.08
  31  0.342  1.000  0.844- 112 1.95  55 1.95 108 1.96  96 2.02 102 2.07 106 2.08
  32  0.341  0.334  0.344- 109 1.95 107 1.95  56 1.97  97 2.00 103 2.08 101 2.08
  33  0.342  0.333  0.844- 110 1.95  57 1.95 108 1.96  98 2.02 102 2.07 104 2.08
  34  0.342  0.667  0.344- 109 1.94 111 1.94  58 1.95  99 2.03 103 2.08 105 2.08
  35  0.340  0.667  0.843-  59 1.94 110 1.96 112 1.96 100 2.01 104 2.07 106 2.07
  36  0.087  0.031  0.396- 114 1.90  95 1.94  93 1.95  38 2.48
  37  0.093  0.000  0.898- 113 1.83  94 1.85  90 1.85  96 1.87
  38  0.087  0.302  0.396- 116 1.90  97 1.94  91 1.95  36 2.48
  39  0.093  0.333  0.898- 115 1.83  92 1.85  90 1.85  98 1.87
  40  0.087  0.667  0.396- 118 1.85  99 1.88  91 1.90  93 1.90
  41  0.093  0.667  0.898- 117 1.84  92 1.85  94 1.85 100 1.88
  42  0.413  0.167  0.104- 108 1.84  84 1.85  86 1.85 101 1.87
  43  0.411  0.167  0.604- 107 1.84  85 1.85  87 1.85 102 1.87
  44  0.412  0.499  0.103- 110 1.84  88 1.85  86 1.86 103 1.87
  45  0.410  0.501  0.603- 109 1.83  87 1.85  89 1.85 104 1.87
  46  0.412  0.834  0.103- 112 1.84  88 1.85  84 1.86 105 1.87
  47  0.410  0.833  0.603- 111 1.83  85 1.85  89 1.85 106 1.87
  48  0.998  0.167  0.138-  18 1.85  20 1.85  24 1.98
  49  0.998  0.167  0.623-  19 1.84  21 1.84  25 1.97
  50  1.000  0.501  0.125-  22 1.84  20 1.84  26 1.93
  51  0.995  0.499  0.625-  21 1.82  23 1.85  27 1.97
  52  1.000  0.832  0.125-  22 1.84  18 1.84  28 1.93
  53  0.995  0.834  0.625-  19 1.82  23 1.85  29 1.97
  54  0.506  1.000  0.372-  12 1.83  16 1.85  30 1.97
  55  0.505  0.000  0.874-  17 1.84  13 1.84  31 1.95
  56  0.506  0.333  0.372-  12 1.83  14 1.85  32 1.97
  57  0.505  0.333  0.874-  15 1.84  13 1.84  33 1.95
  58  0.506  0.667  0.373-  14 1.84  16 1.84  34 1.95
  59  0.502  0.667  0.868-  15 1.84  17 1.84  35 1.94
  60  0.691  0.167  0.298- 119 1.72  12 1.93   1 2.29   3 2.29
[...]
 105  0.330  0.833  0.220-  46 1.87  28 2.02  34 2.08  30 2.08
 106  0.328  0.833  0.720-  47 1.87  29 2.03  35 2.07  31 2.08
 107  0.336  0.167  0.447-  43 1.84  30 1.95  32 1.95
 108  0.336  0.167  0.948-  42 1.84  31 1.96  33 1.96
 109  0.335  0.500  0.446-  45 1.83  34 1.94  32 1.95
 110  0.335  0.500  0.947-  44 1.84  33 1.95  35 1.96
 111  0.335  0.833  0.446-  47 1.83  34 1.94  30 1.95
 112  0.335  0.834  0.947-  46 1.84  31 1.95  35 1.96
 113  0.169  0.001  0.054-  37 1.83  24 1.95  28 1.96
 114  0.169  1.000  0.555-  36 1.90  29 1.92  25 1.94
 115  0.169  0.332  0.054-  39 1.83  24 1.95  26 1.96
 116  0.169  0.333  0.555-  38 1.90  27 1.92  25 1.94
 117  0.170  0.667  0.055-  41 1.84  26 1.97  28 1.97
 118  0.165  0.667  0.552-  40 1.85  27 1.94  29 1.94
 119  0.833  0.167  0.363-  72 1.71  74 1.71  60 1.72  66 2.44  68 2.44

  LATTYP: Found a simple monoclinic cell.
 ALAT       =    11.6348202465
 B/A-ratio  =     0.7858051831
 C/A-ratio  =     1.0554931797
 COS(beta)  =    -0.2379290539

  Lattice vectors:

 A1 = (   0.0000000000,  -2.7682617730, -11.3006977184)
 A2 = (  -9.1427020537,   0.0000000000,   0.0000000000)
 A3 = (   0.0000000000,  12.2804734172,   0.0000000000)

Analysis of symmetry for initial positions (statically):
 Subroutine PRICEL returns:
 Original cell was already a primitive cell.

 Routine SETGRP: Setting up the symmetry group for a
 simple monoclinic supercell.

 Subroutine GETGRP returns: Found  2 space group operations
 (whereof  1 operations were pure point group operations)
 out of a pool of  4 trial point group operations.

The static configuration has the point symmetry C_1 .
 The point group associated with its full space group is C_1h.

Analysis of symmetry for dynamics (positions and initial velocities):
 Subroutine PRICEL returns:
 Original cell was already a primitive cell.

 Routine SETGRP: Setting up the symmetry group for a
 simple monoclinic supercell.

 Subroutine GETGRP returns: Found  2 space group operations
 (whereof  1 operations were pure point group operations)
 out of a pool of  4 trial point group operations.

The dynamic configuration has the point symmetry C_1 .
 The point group associated with its full space group is C_1h.

 Subroutine INISYM returns: Found  2 space group operations
 (whereof  1 operations are pure point group operations),
 and found     1 'primitive' translations

                                     Primitive cell

  volume of cell :    1268.8052

  direct lattice vectors                    reciprocal lattice vectors
     0.000000000 12.280473417  0.000000000     0.000000000  0.081430085 -0.019947423
     9.142702054  0.000000000  0.000000000     0.109376855 -0.000000000  0.000000000
     0.000000000 -2.768261773-11.300697718     0.000000000  0.000000000 -0.088490111

  length of vectors
    12.280473417  9.142702054 11.634820246     0.083837691  0.109376855  0.088490111

  position of ions in fractional coordinates (direct lattice)
     0.663213570  0.993406099  0.152451809
     0.659550001  0.999196046  0.658760111
     0.663213570  0.339927234  0.152451809
     0.659550001  0.334137287  0.658760111
     0.660064207  0.666666667  0.155874951
     0.660874039  0.666666667  0.655332752
     0.841879014  0.166666667  0.846015869
     0.845556969  0.500930690  0.335329979
     0.842661958  0.499887907  0.843776516
     0.845556969  0.832402643  0.335329979
     0.842661958  0.833445427  0.843776516
     0.590018362  0.166666667  0.402829264
     0.591988367  0.166666667  0.899999510
     0.592709069  0.500359209  0.397439554
     0.589301347  0.501303923  0.894111656
     0.592709069  0.832974125  0.397439554
     0.589301347  0.832029410  0.894111656
     0.912200352  0.998744223  0.103640422
     0.911330589  0.001024061  0.607339147
     0.912200352  0.334589111  0.103640422
[...]
     52     -17.0072      2.00000
     53     -16.9818      2.00000
     54     -16.9809      2.00000
     55     -16.9727      2.00000
     56     -16.9444      2.00000
     57     -16.9433      2.00000
     58     -16.9378      2.00000
     59     -16.9172      2.00000
     60     -16.9128      2.00000
[...]
    611      15.4602      0.00000
    612      15.5344      0.00000
    613      15.6273      0.00000
    614      15.7392      0.00000
    615      15.8712      0.00000
    616      15.9113      0.00000
    617      16.1598      0.00000
    618      16.2121      0.00000
    619      16.2832      0.00000
    620      16.3803      0.00000
    621      16.4322      0.00000
    622      16.5155      0.00000
    623      16.6554      0.00000
    624      16.8433      0.00000
    625      16.9573      0.00000

 soft charge-density along one line, spin component            1
         0         1         2         3         4         5         6         7         8         9
 total charge-density along one line

------------------------ aborting loop because EDIFF is reached ----------------------------------------

  FORCE on cell =-STRESS in cart. coord.  units (eV):
  Direction    XX          YY          ZZ          XY          YZ          ZX
  Alpha Z  5376.25787  5376.25787  5376.25787
  Ewald  -24534.15500-31489.51547-30629.85602     0.00000 -1701.66135    -0.00000
  Hartree 14022.62242  9675.39077 10193.63006    -0.00003 -1137.42217    -0.00000
  E(xc)   -4040.53175 -4043.75463 -4042.79784     0.00000    -0.51977     0.00000
  Local   -6163.14052  4987.49114  3590.38763     0.00007  2797.08932     0.00006
  n-local  5895.13155  5842.99580  5855.64406     0.00001    -6.67302    -0.00002
  augment  5391.95316  5411.03342  5419.03563     0.00000     5.80497    -0.00001
  Kinetic 12289.37349 12492.87733 12491.74788    -0.00007    45.80791    -0.00021
  Fock    -8282.57657 -8287.63575 -8285.17351     0.00001     0.17055     0.00001
  Total     -45.06535   -34.85952   -31.12423     0.00000     2.59645     0.00000
  in kB     -56.90605   -44.01868   -39.30197     0.00000     3.27865     0.00000

 VOLUME and BASIS-vectors are now :
  energy-cutoff  :      450.00
  volume of cell :     1268.81
      direct lattice vectors                 reciprocal lattice vectors
     0.000000000 12.280473417  0.000000000     0.000000000  0.081430085 -0.019947423
     9.142702054  0.000000000  0.000000000     0.109376855 -0.000000000  0.000000000
     0.000000000 -2.768261773-11.300697718     0.000000000  0.000000000 -0.088490111

  length of vectors
    12.280473417  9.142702054 11.634820246     0.083837691  0.109376855  0.088490111

 FORCES acting on ions:
    Electron-Ion                     Ewald-Force                    Non-Local-Force
   -.163E+03 -.302E+02 0.698E+02   0.160E+03 0.344E+02 -.632E+02   0.324E+01 -.373E+01 -.613E+01
   -.791E+01 -.205E+00 -.119E+03   0.803E+01 0.524E-01 0.124E+03   -.112E+00 0.242E+00 -.407E+01
   0.163E+03 -.302E+02 0.698E+02   -.160E+03 0.344E+02 -.632E+02   -.324E+01 -.373E+01 -.613E+01
   0.791E+01 -.205E+00 -.119E+03   -.803E+01 0.524E-01 0.124E+03   0.112E+00 0.242E+00 -.407E+01
   0.442E-04 0.105E+02 -.119E+02   0.436E-10 -.111E+02 0.178E+02   0.000E+00 0.628E+00 -.558E+01
   -.116E-03 0.622E+01 -.122E+03   0.214E-10 -.556E+01 0.127E+03   0.000E+00 -.541E+00 -.414E+01
   0.215E-04 -.539E+02 0.998E+02   0.786E-13 0.532E+02 -.105E+03   0.000E+00 0.589E+00 0.504E+01
   0.196E+03 -.767E+02 0.199E+03   -.193E+03 0.804E+02 -.195E+03   -.252E+01 -.346E+01 -.355E+01
   0.117E+02 -.543E+02 0.773E+02   -.114E+02 0.543E+02 -.823E+02   -.265E+00 -.483E-01 0.470E+01
   -.196E+03 -.767E+02 0.199E+03   0.193E+03 0.804E+02 -.195E+03   0.252E+01 -.346E+01 -.355E+01
   -.117E+02 -.543E+02 0.773E+02   0.114E+02 0.543E+02 -.823E+02   0.265E+00 -.483E-01 0.470E+01
   -.238E-04 -.180E+03 -.624E+02   0.137E-10 0.175E+03 0.576E+02   0.000E+00 0.423E+01 0.444E+01
   0.777E-05 -.756E+02 0.834E+02   0.289E-11 0.730E+02 -.833E+02   0.000E+00 0.229E+01 -.485E-01
   0.354E+02 -.119E+03 0.185E+02   -.350E+02 0.117E+03 -.199E+02   -.356E+00 0.176E+01 0.133E+01
   0.174E+02 -.620E+02 0.433E+02   -.172E+02 0.598E+02 -.458E+02   -.169E+00 0.203E+01 0.232E+01
   -.354E+02 -.119E+03 0.185E+02   0.350E+02 0.117E+03 -.199E+02   0.356E+00 0.176E+01 0.133E+01
   -.174E+02 -.620E+02 0.433E+02   0.172E+02 0.598E+02 -.458E+02   0.169E+00 0.203E+01 0.232E+01
   -.114E+03 0.658E+02 0.114E+03   0.112E+03 -.660E+02 -.114E+03   0.138E+01 0.159E+00 -.219E+00
   -.305E+02 0.760E+01 -.210E+03   0.305E+02 -.419E+01 0.206E+03   -.162E-01 -.309E+01 0.317E+01
   0.114E+03 0.658E+02 0.114E+03   -.112E+03 -.660E+02 -.114E+03   -.138E+01 0.159E+00 -.219E+00
   0.305E+02 0.760E+01 -.210E+03   -.305E+02 -.419E+01 0.206E+03   0.162E-01 -.309E+01 0.317E+01
   0.503E-05 0.444E+02 0.274E+02   0.620E-10 -.417E+02 -.258E+02   0.000E+00 -.241E+01 -.144E+01
   0.529E-04 0.317E+02 -.110E+03   0.294E-10 -.292E+02 0.111E+03   0.000E+00 -.215E+01 -.128E+01
   -.238E-04 0.119E+03 -.593E+02   0.218E-10 -.118E+03 0.620E+02   0.000E+00 -.989E+00 -.265E+01
   -.127E-03 0.109E+03 -.154E+03   0.289E-10 -.107E+03 0.160E+03   0.000E+00 -.214E+01 -.594E+01
   0.114E+02 0.797E+02 -.406E+02   -.121E+02 -.801E+02 0.437E+02   0.669E+00 0.391E+00 -.305E+01
   0.506E+01 0.845E+02 -.148E+03   -.640E+01 -.825E+02 0.154E+03   0.123E+01 -.177E+01 -.615E+01
   -.114E+02 0.797E+02 -.406E+02   0.121E+02 -.801E+02 0.437E+02   -.669E+00 0.391E+00 -.305E+01
   -.506E+01 0.845E+02 -.148E+03   0.640E+01 -.825E+02 0.154E+03   -.123E+01 -.177E+01 -.615E+01
   -.313E+01 -.137E+02 0.909E+02   0.290E+01 0.111E+02 -.948E+02   0.214E+00 0.226E+01 0.376E+01
   -.839E+00 -.182E+02 0.796E+02   0.798E+00 0.174E+02 -.840E+02   0.431E-01 0.648E+00 0.418E+01
   0.313E+01 -.137E+02 0.909E+02   -.290E+01 0.111E+02 -.948E+02   -.214E+00 0.226E+01 0.376E+01
   0.839E+00 -.182E+02 0.796E+02   -.798E+00 0.174E+02 -.840E+02   -.431E-01 0.648E+00 0.418E+01
   -.992E-05 0.510E+00 0.869E+02   0.150E-10 -.126E+01 -.919E+02   0.000E+00 0.584E+00 0.468E+01
   -.256E-04 -.446E+01 0.810E+02   0.395E-10 0.424E+01 -.846E+02   0.000E+00 0.156E+00 0.344E+01
   -.107E+03 0.259E+03 -.489E+02   0.120E+03 -.258E+03 0.468E+02   -.123E+02 0.795E-01 0.180E+01
   -.102E+02 -.302E+02 0.265E+02   0.101E+02 0.288E+02 -.286E+02   0.431E-01 0.117E+01 0.199E+01
   0.107E+03 0.259E+03 -.489E+02   -.120E+03 -.258E+03 0.468E+02   0.123E+02 0.795E-01 0.180E+01
   0.102E+02 -.302E+02 0.265E+02   -.101E+02 0.288E+02 -.286E+02   -.431E-01 0.117E+01 0.199E+01
   -.179E-04 0.227E+02 0.121E+02   0.384E-10 -.206E+02 -.154E+02   0.000E+00 -.183E+01 0.297E+01
   0.973E-05 -.413E+02 0.194E+02   0.292E-10 0.396E+02 -.211E+02   0.000E+00 0.148E+01 0.166E+01
   -.241E-05 0.103E+02 0.531E+01   0.292E-10 -.929E+01 -.414E+01   0.000E+00 -.929E+00 -.111E+01
   0.667E-06 0.655E+02 -.593E+02   0.560E-10 -.636E+02 0.613E+02   0.000E+00 -.170E+01 -.187E+01
   0.233E+02 0.418E+02 -.116E+02   -.219E+02 -.405E+02 0.128E+02   -.118E+01 -.110E+01 -.118E+01
   0.284E+01 0.738E+02 -.620E+02   -.299E+01 -.719E+02 0.643E+02   0.124E+00 -.164E+01 -.214E+01
   -.233E+02 0.418E+02 -.116E+02   0.219E+02 -.405E+02 0.128E+02   0.118E+01 -.110E+01 -.118E+01
   -.284E+01 0.738E+02 -.620E+02   0.299E+01 -.719E+02 0.643E+02   -.124E+00 -.164E+01 -.214E+01
   0.239E-04 0.439E+02 0.107E+03   0.324E-10 -.366E+02 -.115E+03   0.000E+00 -.631E+01 0.656E+01
   -.292E-04 -.213E+02 -.837E+02   0.601E-11 0.316E+02 0.824E+02   0.000E+00 -.890E+01 0.112E+01
   0.221E+02 -.849E+01 0.469E+02   -.224E+02 0.161E+02 -.502E+02   0.278E+00 -.651E+01 0.288E+01
   0.875E+01 -.231E+02 -.349E+02   -.718E+01 0.323E+02 0.317E+02   -.135E+01 -.793E+01 0.273E+01
   -.221E+02 -.849E+01 0.469E+02   0.224E+02 0.161E+02 -.502E+02   -.278E+00 -.651E+01 0.288E+01
   -.875E+01 -.231E+02 -.349E+02   0.718E+01 0.323E+02 0.317E+02   0.135E+01 -.793E+01 0.273E+01
   -.516E+01 -.829E+01 -.320E+02   0.406E+01 -.250E+00 0.372E+02   0.960E+00 0.737E+01 -.450E+01
   -.797E+01 0.150E+02 -.279E+01   0.828E+01 -.228E+02 0.634E+01   -.269E+00 0.670E+01 -.306E+01
   0.516E+01 -.829E+01 -.320E+02   -.406E+01 -.250E+00 0.372E+02   -.960E+00 0.737E+01 -.450E+01
   0.797E+01 0.150E+02 -.279E+01   -.828E+01 -.228E+02 0.634E+01   0.269E+00 0.670E+01 -.306E+01
   0.362E-05 0.861E+01 -.147E+02   0.117E-11 -.169E+02 0.186E+02   0.000E+00 0.712E+01 -.336E+01
   0.387E-05 0.200E+02 -.130E+02   0.626E-11 -.278E+02 0.174E+02   0.000E+00 0.672E+01 -.380E+01
   -.613E-04 -.986E+02 0.323E+02   0.151E-10 0.885E+02 -.187E+02   0.000E+00 0.873E+01 -.118E+02
[...]
   -.193E+01 -.456E+02 -.523E+02   0.207E+01 0.432E+02 0.476E+02   -.129E+00 0.214E+01 0.408E+01
   -.803E-05 0.132E+03 0.525E+02   0.776E-11 -.145E+03 -.488E+02   0.000E+00 0.104E+02 -.320E+01
   0.476E-05 0.124E+03 0.712E+02   0.234E-10 -.136E+03 -.677E+02   0.000E+00 0.106E+02 -.303E+01
   0.421E+01 0.147E+03 0.540E+02   -.439E+01 -.159E+03 -.503E+02   0.155E+00 0.108E+02 -.315E+01
   0.411E+00 0.125E+03 0.677E+02   -.810E-01 -.138E+03 -.644E+02   -.286E+00 0.106E+02 -.283E+01
   -.421E+01 0.147E+03 0.540E+02   0.439E+01 -.159E+03 -.503E+02   -.155E+00 0.108E+02 -.315E+01
   -.411E+00 0.125E+03 0.677E+02   0.810E-01 -.138E+03 -.644E+02   0.286E+00 0.106E+02 -.283E+01
   -.565E+01 -.104E+03 -.490E+02   0.542E+01 0.116E+03 0.448E+02   0.203E+00 -.105E+02 0.370E+01
   0.162E+02 -.766E+02 -.132E+03   -.175E+02 0.882E+02 0.135E+03   0.108E+01 -.100E+02 -.201E+01
   0.565E+01 -.104E+03 -.490E+02   -.542E+01 0.116E+03 0.448E+02   -.203E+00 -.105E+02 0.370E+01
   -.162E+02 -.766E+02 -.132E+03   0.175E+02 0.882E+02 0.135E+03   -.108E+01 -.100E+02 -.201E+01
   0.274E-04 -.114E+03 -.511E+02   0.803E-11 0.127E+03 0.469E+02   0.000E+00 -.108E+02 0.359E+01
   -.903E-05 -.970E+02 -.969E+02   0.774E-11 0.109E+03 0.945E+02   0.000E+00 -.103E+02 0.205E+01
   -.800E-04 -.142E+03 -.231E+02   0.616E-11 0.162E+03 0.321E+02   0.000E+00 -.198E+02 -.908E+01
   0.905E-04 0.351E+02 0.776E+01   0.167E-12 -.193E-11 -.111E-11   -.222E-15 -.324E+02 -.862E+01

 POSITION                                       TOTAL-FORCE (eV/Angst)
      9.08242      7.72255     -1.72281        -0.146704      0.186607      0.084330
      9.13535      6.27597     -7.44445        -0.001617      0.059720     -0.000470
      3.10785      7.72255     -1.72281         0.146704      0.186607      0.084330
      3.05492      6.27597     -7.44445         0.001617      0.059720     -0.000470
      6.09513      7.67440     -1.76150         0.000000      0.050684      0.052192
      6.09513      6.30171     -7.40572         0.000000      0.069573     -0.012332
      1.52378      7.99668     -9.56057         0.000000     -0.072333     -0.028483
      4.57986      9.45556     -3.78946         0.066571     -0.004392      0.222710
      4.57033      8.01249     -9.53526         0.006603     -0.061294     -0.029775
      7.61041      9.45556     -3.78946        -0.066571     -0.004392      0.222710
      7.61994      8.01249     -9.53526        -0.006603     -0.061294     -0.029775
      1.52378      6.13057     -4.55225         0.000000     -0.046949     -0.076487
      1.52378      4.77846    -10.17062         0.000000     -0.038942      0.043202
      4.57464      6.17853     -4.49134         0.012890     -0.020205      0.031559
      4.58327      4.76176    -10.10409         0.005945     -0.019322     -0.018484
      7.61563      6.17853     -4.49134        -0.012890     -0.020205      0.031559
      7.60700      4.76176    -10.10409        -0.005945     -0.019322     -0.018484
      9.13122     10.91535     -1.17121        -0.039129     -0.043733     -0.076053
      0.00936      9.51030     -6.86336         0.023438      0.056838     -0.073684
      3.05905     10.91535     -1.17121         0.039129     -0.043733     -0.076053
      3.03820      9.51030     -6.86336        -0.023438      0.056838     -0.073684
      6.09513     10.92696     -1.12574         0.000000      0.025389     -0.018311
      6.09513      9.49450     -6.78170         0.000000      0.076771     -0.023615
      1.52378      1.55368     -1.79191         0.000000      0.060161     -0.070230
      1.52378      0.18654     -7.41494         0.000000      0.099083      0.107984
      4.56722      1.54659     -1.78963        -0.027228      0.040031     -0.043085
      4.56191      0.14783     -7.38523        -0.027798      0.102103      0.098939
      7.62305      1.54659     -1.78963         0.027228      0.040031     -0.043085
      7.62836      0.14783     -7.38523         0.027798      0.102103      0.098939
      9.13767      3.23687     -3.88577        -0.006705     -0.144209      0.000979
      9.14193      1.85776     -9.53695         0.001400     -0.073650      0.003356
      3.05260      3.23687     -3.88577         0.006705     -0.144209      0.000979
      3.04834      1.85776     -9.53695        -0.001400     -0.073650      0.003356
      6.09513      3.24904     -3.88870         0.000000     -0.086409     -0.017419
      6.09513      1.83796     -9.52584         0.000000     -0.061539      0.019268
      0.28522     -0.02471     -4.47307        -0.331689      0.339249     -0.108238
      0.00065     -1.35008    -10.15096        -0.005238     -0.000170      0.008513
      2.76235     -0.02471     -4.47307         0.331689      0.339249     -0.108238
      3.04691     -1.35008    -10.15096         0.005238     -0.000170      0.008513
      6.09513     -0.02123     -4.46995         0.000000      0.133948     -0.061354
      6.09513     -1.34799    -10.15167         0.000000     -0.005840      0.032382
      1.52378      4.78345     -1.17486         0.000000     -0.018243     -0.023900
      1.52378      3.37200     -6.81999         0.000000     -0.004307     -0.001640
      4.56435      4.77125     -1.16961         0.040265     -0.007367     -0.027305
      4.57660      3.36485     -6.81379        -0.010103      0.000450      0.014042
      7.62592      4.77125     -1.16961        -0.040265     -0.007367     -0.027305
      7.61367      3.36485     -6.81379         0.010103      0.000450      0.014042
      1.52378     11.87188     -1.55500         0.000000     -0.152893      0.260568
      1.52378     10.53532     -7.03767         0.000000     -0.297057      0.029569
      4.58076     11.92904     -1.41620         0.010303     -0.188214      0.111046
      4.56474     10.48991     -7.05949        -0.037467     -0.238822      0.092422
      7.60951     11.92904     -1.41620        -0.010303     -0.188214      0.111046
      7.62553     10.48991     -7.05949         0.037467     -0.238822      0.092422
      9.14193      5.17832     -4.20416         0.040865      0.226758     -0.156596
      0.00420      3.77802     -9.87313        -0.010472      0.184463     -0.108728
      3.04833      5.17832     -4.20416        -0.040865      0.226758     -0.156596
      3.04337      3.77802     -9.87313         0.010472      0.184463     -0.108728
      6.09513      5.17547     -4.21758         0.000000      0.208727     -0.125629
      6.09513      3.75624     -9.81340         0.000000      0.189739     -0.133983
      1.52378      7.66268     -3.37288         0.000000      0.372610     -0.437706
[...]
      7.61378      3.44598     -2.48706         0.003615      0.056062      0.123278
      7.61720      2.03588     -8.13094        -0.005813      0.060712      0.108791
      1.52378      2.89115     -5.04676         0.000000      0.398613     -0.081836
      1.52378      1.49794    -10.70846         0.000000      0.385680     -0.083355
      4.57558      2.88407     -5.04403         0.007645      0.407032     -0.082072
      4.56715      1.48789    -10.70079        -0.010691      0.385950     -0.067809
      7.61469      2.88407     -5.04403        -0.007645      0.407032     -0.082072
      7.62312      1.48789    -10.70079         0.010691      0.385950     -0.067809
      0.00836      1.92170     -0.61299         0.007894     -0.383410      0.100803
      9.14236      0.53790     -6.26698         0.011359     -0.369101     -0.134559
      3.03921      1.92170     -0.61299        -0.007894     -0.383410      0.100803
      3.04791      0.53790     -6.26698        -0.011359     -0.369101     -0.134559
      6.09513      1.94003     -0.61660         0.000000     -0.397160      0.098372
      6.09513      0.49498     -6.24363         0.000000     -0.377295      0.027628
      1.52378      9.22158     -4.10274         0.000000     -1.083077     -0.532378
    total drift:                                0.000091      0.119015     -0.104500

  FREE ENERGIE OF THE ION-ELECTRON SYSTEM (eV)
  free  energy   TOTEN  =      -947.53039428 eV

  energy  without entropy=     -947.53039428  energy(sigma->0) =     -947.53039428

 writing wavefunctions