 vasp.6.4.2 20Jul23 (build Nov 12 2023 22:16:35) complex
 executed on              LinuxNV date 2025.03.14  06:34:56
 OpenACC runtime initialized ...    4 GPUs detected

 INCAR:
   PREC = Normal
   ENCUT = 450
   NELM = 500
   IBRION = -1
   ISPIN = 1
   NSW = 0
   ISIF = 2
   EDIFF = 1E-5
   EDIFFG = -5E-3
   ISTART = 0
   ICHARG = 0
   ISMEAR = 0
   SIGMA = 0.05
   LWAVE = .T.
   LCHARG = .T.
   LREAL = Auto
   LPLANE = .TRUE.
   NPAR = 1
   KPAR = 4
   NCORE = 1
   ALGO = All
   LHFCALC = .TRUE.
   HSE06 = .TRUE.
   HFSCREEN = 0.18
   TIME = 0.4
   AEXX = 0.35
   LMAXFOCK = 4
   PRECFOCK = Fast
   NELECT = 1056

 POTCAR:    PAW_PBE Ga_d 06Jul2010
 POTCAR:     PAW_PBE O 08Apr2002
 POTCAR:    PAW_PBE P 06Sep2000
 POTCAR:    PAW_PBE Ga_d 06Jul2010
   VRHFIN =Ga: s2p1

   TITEL  = PAW_PBE Ga_d 06Jul2010
   POMASS =   69.723; ZVAL   =   13.000    mass and valenz
   ENMAX  =  282.691; ENMIN  =  212.018 eV

   TITEL  = PAW_PBE O 08Apr2002
   POMASS =   16.000; ZVAL   =    6.000    mass and valenz
   ENMAX  =  400.000; ENMIN  =  300.000 eV

   TITEL  = PAW_PBE P 06Sep2000
   POMASS =   30.974; ZVAL   =    5.000    mass and valenz
   ENMAX  =  255.040; ENMIN  =  191.280 eV

 Optimization of the real space projectors (new method)

 maximal supplied QI-value         = 16.25
 optimisation between [QCUT,QGAM] = [ 10.73, 21.61] = [ 32.22,130.83] Ry
 Optimized for a Real-space Cutoff    1.42 Angstroem

   l    n(q)    QCUT    max X(q) W(low)/X(q) W(high)/X(q)  e(spline)
   2      8    10.726     7.143    0.22E-03    0.16E-03    0.73E-07
   2      8    10.726     5.586    0.40E-03    0.26E-03    0.10E-06
   0      9    10.726    12.382    0.25E-04    0.21E-05    0.37E-07
   0      9    10.726     6.622    0.42E-04    0.48E-05    0.77E-07
   1      9    10.726     7.935    0.27E-03    0.13E-04    0.16E-06
   1      9    10.726     2.425    0.23E-03    0.15E-04    0.14E-06
 Optimization of the real space projectors (new method)

[...]

   l    n(q)    QCUT    max X(q) W(low)/X(q) W(high)/X(q)  e(spline)
   0      8    10.645    20.381    0.38E-03    0.60E-03    0.15E-06
   0      8    10.645    15.268    0.40E-03    0.65E-03    0.17E-06
   1      7    10.645     5.964    0.30E-03    0.63E-03    0.18E-06
   1      7    10.645     5.382    0.24E-03    0.53E-03    0.16E-06
 Optimization of the real space projectors (new method)

 maximal supplied QI-value         = 19.84
 optimisation between [QCUT,QGAM] = [ 10.71, 21.63] = [ 32.15,130.99] Ry
 Optimized for a Real-space Cutoff    1.19 Angstroem

   l    n(q)    QCUT    max X(q) W(low)/X(q) W(high)/X(q)  e(spline)
   0      8    10.715   160.924    0.37E-03    0.37E-04    0.63E-07
   0      8    10.715   130.086    0.37E-03    0.36E-04    0.63E-07
   1      7    10.715    74.434    0.19E-03    0.56E-03    0.65E-07
   1      7    10.715    49.120    0.19E-03    0.55E-03    0.63E-07
  PAW_PBE Ga_d 06Jul2010                :
   PAW_PBE O 08Apr2002                  :
  PAW_PBE P 06Sep2000                   :

 POSCAR: Ga48 O72
  positions in direct lattice
  velocities in cartesian coordinates
 exchange correlation table for  LEXCH =        8
   RHO(1)=    0.500       N(1)  =     2000
   RHO(2)=  100.500       N(2)  =     4000

 ion  position               nearest neighbor table
   1  0.672  0.997  0.152-  84 1.88  66 1.93  82 1.98  78 1.99  60 2.04  64 2.05
   2  0.643  0.004  0.654-  85 1.91  83 1.95  79 1.96  61 2.05  65 2.09  67 2.09
   3  0.667  0.328  0.157-  86 1.91  80 1.96  68 1.97  78 1.97  60 2.04  62 2.07
   4  0.649  0.332  0.653-  87 1.86  79 1.90  81 1.95  69 2.00  63 2.09  61 2.12
   5  0.664  0.665  0.161-  88 1.92  70 1.96  80 1.97  82 1.98  64 2.03  62 2.05
   6  0.641  0.671  0.653-  83 1.90  89 1.94  81 1.95  71 2.05  65 2.08  63 2.08
   7  0.844  0.157  0.343-  90 1.87  74 1.90  72 1.97  60 2.03  66 2.08  68 2.13
   8  0.832  0.168  0.840-  73 1.91  91 1.95  75 1.98  69 1.99  61 2.02  67 2.10
   9  0.842  0.497  0.345-  92 1.87  74 1.94  76 1.98  62 2.02  70 2.07  68 2.12
  10  0.829  0.500  0.835-  77 1.90  93 1.94  75 1.97  69 2.01  63 2.03  71 2.06
  11  0.840  0.825  0.347-  76 1.90  94 1.92  72 1.94  64 2.05  70 2.05  66 2.10
  12  0.827  0.834  0.838-  95 1.96  73 1.96  77 1.99  71 1.99  65 2.01  67 2.05
  13  0.588  0.136  0.395-  79 1.91  56 1.91  60 1.98  17 2.44
  14  0.584  0.161  0.899-  55 1.83  57 1.84  78 1.86  61 1.87
  15  0.585  0.501  0.393-  81 1.84  56 1.85  58 1.86  62 1.91
  16  0.592  0.499  0.904-  57 1.83  59 1.84  80 1.84  63 1.86
  17  0.588  0.869  0.397-  83 1.89  58 1.92  64 1.97  13 2.44
  18  0.588  0.832  0.903-  55 1.81  59 1.83  82 1.83  65 1.86
  19  0.917  0.964  0.100-  66 1.94  73 1.96  48 1.98  52 1.98  23 2.44
  20  0.909  0.997  0.604-  49 1.80  72 1.87  53 1.89  67 1.91
  21  0.912  0.333  0.101-  75 1.85  48 1.86  50 1.86  68 1.87
  22  0.905  0.356  0.599-  49 1.87  74 1.93  51 1.99  69 2.04  24 2.46
  23  0.901  0.698  0.092-  77 1.91  50 1.94  70 1.96  19 2.44
  24  0.898  0.625  0.601-  76 1.93  71 1.97  53 2.03  51 2.07  22 2.46
  25  0.157  0.187  0.153- 102 1.94 115 1.94  96 1.96  48 2.00 114 2.02  98 2.04
  26  0.146  0.509  0.169-  50 1.96  98 1.98 117 1.99 115 2.00 100 2.01 104 2.12
  27  0.187  0.459  0.652-  51 1.82 116 1.90  99 2.00 105 2.01 118 2.07  38 2.84  45 2.85
  28  0.165  0.849  0.151-  52 1.85 106 1.86 114 1.90 117 1.92  96 2.17
  29  0.152  0.824  0.666- 101 1.99  53 2.00  97 2.03 118 2.10 107 2.21 119 2.32
  30  0.346  0.009  0.346-  96 1.82 108 1.83  54 1.84 112 1.84
  31  0.334  1.000  0.850- 103 1.92  97 1.96 109 1.97 113 2.00 107 2.02  55 2.04
  32  0.341  0.341  0.334- 108 1.91 110 1.92 102 1.92  98 2.06 104 2.07  56 2.09
  33  0.340  0.326  0.858-  99 1.91 103 1.93 109 1.97  57 1.97 111 2.00 105 2.12
  34  0.350  0.668  0.335- 110 1.88 112 1.89 106 1.94 104 1.99  58 2.01 100 2.03
  35  0.338  0.668  0.858- 105 1.95 113 1.96 107 1.97 111 1.98 101 1.99  59 1.99
  36  0.088  0.973  0.366-  90 1.87  52 1.94  94 1.96  96 2.01 119 2.27
  37  0.082  0.007  0.893-  97 1.79 114 1.84  91 1.84  95 1.87
  38  0.093  0.300  0.443-  90 2.02  92 2.19  98 2.32  27 2.84
  39  0.083  0.342  0.885-  99 1.81 115 1.84  91 1.87  93 1.87
  40  0.093  0.648  0.415-  92 1.82 118 1.86  94 1.88 100 1.88
  41  0.080  0.672  0.896- 101 1.82 117 1.84  93 1.85  95 1.86
  42  0.422  0.155  0.117- 102 1.85 109 1.87  86 1.89  84 1.95  54 1.98  46 2.82
  43  0.374  0.179  0.602- 103 1.85 108 1.92 116 1.98  87 1.99  85 2.03 119 2.59  45 2.91
  44  0.418  0.497  0.111- 111 1.82 104 1.84  86 1.87  88 1.88
  45  0.402  0.495  0.605-  87 1.87  89 1.90 110 1.90 116 1.94 105 1.97  27 2.85  43 2.91
  46  0.425  0.847  0.118- 113 1.87 106 1.88  88 1.89  84 1.91  54 2.09  42 2.82
  47  0.382  0.851  0.599-  85 1.90 107 1.91 112 1.92  89 1.97 119 2.49
  48  0.991  0.157  0.115-  21 1.86  19 1.98  25 2.00
  49  0.976  0.173  0.620-  20 1.80  22 1.87
  50  0.982  0.515  0.125-  21 1.86  23 1.94  26 1.96
  51  0.036  0.490  0.629-  27 1.82  22 1.99  24 2.07
  52  0.042  0.872  0.216-  28 1.85  36 1.94  19 1.98
  53  0.985  0.815  0.637-  20 1.89  29 2.00  24 2.03
  54  0.442  0.011  0.247-  30 1.84  42 1.98  46 2.09
  55  0.502  0.994  0.863-  18 1.81  14 1.83  31 2.04
  56  0.514  0.321  0.359-  15 1.85  13 1.91  32 2.09
  57  0.506  0.334  0.890-  16 1.83  14 1.84  33 1.97
  58  0.517  0.682  0.358-  15 1.86  17 1.92  34 2.01
  59  0.505  0.664  0.888-  18 1.83  16 1.84  35 1.99
  60  0.676  0.159  0.274-  13 1.98   7 2.03   3 2.04   1 2.04
[...]
 105  0.341  0.510  0.747-  35 1.95  45 1.97  27 2.01  33 2.12
 106  0.315  0.799  0.200-  28 1.86  46 1.88  34 1.94
 107  0.335  0.826  0.743-  47 1.91  35 1.97  31 2.02  29 2.21
 108  0.368  0.175  0.436-  30 1.83  32 1.91  43 1.92
 109  0.332  0.160  0.963-  42 1.87  33 1.97  31 1.97
 110  0.378  0.507  0.438-  34 1.88  45 1.90  32 1.92
 111  0.330  0.499  0.961-  44 1.82  35 1.98  33 2.00
 112  0.373  0.837  0.432-  30 1.84  34 1.89  47 1.92
 113  0.337  0.835  0.963-  46 1.87  35 1.96  31 2.00
 114  0.160  0.011  0.048-  37 1.84  28 1.90  25 2.02
 115  0.137  0.353  0.046-  39 1.84  25 1.94  26 2.00
 116  0.280  0.357  0.570-  27 1.90  45 1.94  43 1.98
 117  0.139  0.674  0.057-  41 1.84  28 1.92  26 1.99
 118  0.192  0.653  0.563-  40 1.86  27 2.07  29 2.10
 119  0.207  1.000  0.547-  36 2.27  29 2.32  47 2.49  43 2.59

  LATTYP: Found a simple monoclinic cell.
 ALAT       =    11.6348202465
 B/A-ratio  =     0.7858051831
 C/A-ratio  =     1.0554931797
 COS(beta)  =    -0.2379290539

  Lattice vectors:

 A1 = (   0.0000000000,  -2.7682617730, -11.3006977184)
 A2 = (  -9.1427020537,   0.0000000000,   0.0000000000)
 A3 = (   0.0000000000,  12.2804734172,   0.0000000000)

Analysis of symmetry for initial positions (statically):
 Subroutine PRICEL returns:
 Original cell was already a primitive cell.

 Routine SETGRP: Setting up the symmetry group for a
 simple monoclinic supercell.

 Subroutine GETGRP returns: Found  1 space group operations
 (whereof  1 operations were pure point group operations)
 out of a pool of  4 trial point group operations.

The static configuration has the point symmetry C_1 .

Analysis of symmetry for dynamics (positions and initial velocities):
 Subroutine PRICEL returns:
 Original cell was already a primitive cell.

 Routine SETGRP: Setting up the symmetry group for a
 simple monoclinic supercell.

 Subroutine GETGRP returns: Found  1 space group operations
 (whereof  1 operations were pure point group operations)
 out of a pool of  4 trial point group operations.

The dynamic configuration has the point symmetry C_1 .

 Subroutine INISYM returns: Found  1 space group operations
 (whereof  1 operations are pure point group operations),
 and found     1 'primitive' translations

                                     Primitive cell

  volume of cell :    1268.8052

  direct lattice vectors                    reciprocal lattice vectors
     0.000000000 12.280473417  0.000000000     0.000000000  0.081430085 -0.019947423
     9.142702054  0.000000000  0.000000000     0.109376855 -0.000000000  0.000000000
     0.000000000 -2.768261773-11.300697718     0.000000000  0.000000000 -0.088490111

  length of vectors
    12.280473417  9.142702054 11.634820246     0.083837691  0.109376855  0.088490111

  position of ions in fractional coordinates (direct lattice)
     0.672051398  0.997199159  0.152092770
     0.643482539  0.003564564  0.653627790
     0.666711925  0.327950395  0.157422406
     0.648951195  0.331697356  0.652824883
     0.663997268  0.665248472  0.161498477
     0.641351272  0.670757789  0.653498318
     0.843791813  0.156679647  0.343361119
     0.832080965  0.167541647  0.840045770
     0.841607497  0.497010552  0.344898621
     0.828511334  0.500334728  0.835053491
     0.840321998  0.825069938  0.346916419
     0.827389903  0.833795298  0.838159231
     0.587626271  0.136272056  0.395250041
     0.584421408  0.161378390  0.899361238
     0.585153830  0.500581425  0.392792362
     0.592405062  0.498790894  0.903723047
     0.587618603  0.868927547  0.396838265
     0.587557302  0.831527701  0.902952468
     0.916796801  0.963838665  0.099708351
     0.909370542  0.996628479  0.604044878
     0.912335549  0.332710362  0.100614527
[...]
     52     -17.2326      2.00000
     53     -17.2149      2.00000
     54     -17.1929      2.00000
     55     -17.1874      2.00000
     56     -17.1816      2.00000
     57     -17.1586      2.00000
     58     -17.1441      2.00000
     59     -17.1112      2.00000
     60     -17.0888      2.00000
[...]
    619      16.7702      0.00000
    620      16.8630      0.00000
    621      16.9686      0.00000
    622      17.0522      0.00000
    623      17.1285      0.00000
    624      17.2603      0.00000
    625      17.3160      0.00000
    626      17.5563      0.00000
    627      17.6093      0.00000
    628      17.7495      0.00000
    629      17.8098      0.00000
    630      17.9176      0.00000
    631      18.0249      0.00000
    632      18.0780      0.00000
    633      18.2460      0.00000

 soft charge-density along one line, spin component            1
         0         1         2         3         4         5         6         7         8         9
 total charge-density along one line

------------------------ aborting loop because EDIFF is reached ----------------------------------------

  FORCE on cell =-STRESS in cart. coord.  units (eV):
  Direction    XX          YY          ZZ          XY          YZ          ZX
  Alpha Z  5376.25787  5376.25787  5376.25787
  Ewald  -24406.02810-31387.25904-30325.84014  -247.85488  -969.95211  -221.07775
  Hartree 14359.85321  9689.38329 10426.93017  -168.57256  -601.23884  -164.52819
  E(xc)   -3902.07928 -3904.70418 -3904.22623    -0.18526    -0.17665    -0.07078
  Local   -6674.96401  4884.98893  3060.29390   408.98190  1545.10991   385.66268
  n-local  6765.04258  6707.69337  6714.03156    -4.19654    -3.70783    -0.55718
  augment  5314.80006  5324.45431  5332.71373     0.82752     4.30090    -0.06357
  Kinetic 12461.57168 12656.82515 12687.92564    18.92903    27.45947     0.49177
  Fock    -9182.29019 -9191.52751 -9191.97454    -0.47312    -0.32197    -0.15080
  Total     112.16380   156.11220   176.11195     7.45608     1.47289    -0.29381
  in kB     141.63428   197.12989   222.38448     9.41513     1.85988    -0.37101

 VOLUME and BASIS-vectors are now :
  energy-cutoff  :      450.00
  volume of cell :     1268.81
      direct lattice vectors                 reciprocal lattice vectors
     0.000000000 12.280473417  0.000000000     0.000000000  0.081430085 -0.019947423
     9.142702054  0.000000000  0.000000000     0.109376855 -0.000000000  0.000000000
     0.000000000 -2.768261773-11.300697718     0.000000000  0.000000000 -0.088490111

  length of vectors
    12.280473417  9.142702054 11.634820246     0.083837691  0.109376855  0.088490111

 FORCES acting on ions:
    Electron-Ion                     Ewald-Force                    Non-Local-Force
   -.383E+02 -.660E+02 -.284E+02   0.380E+02 0.646E+02 0.316E+02   0.179E+00 0.130E+01 -.291E+01
   -.446E+01 0.820E+01 -.108E+03   0.511E+01 -.111E+02 0.114E+03   -.592E+00 0.277E+01 -.529E+01
   -.136E+02 -.245E+02 -.279E+02   0.133E+02 0.252E+02 0.309E+02   0.302E+00 -.472E+00 -.286E+01
   0.139E+02 -.343E+02 -.133E+03   -.161E+02 0.307E+02 0.139E+03   0.199E+01 0.340E+01 -.535E+01
   0.469E+02 0.173E+02 -.309E+02   -.469E+02 -.162E+02 0.332E+02   0.112E-01 -.905E+00 -.217E+01
   0.162E+01 0.337E+02 -.127E+03   0.925E+00 -.332E+02 0.132E+03   -.229E+01 -.224E+00 -.533E+01
   -.426E+02 -.171E+03 0.254E+03   0.446E+02 0.175E+03 -.260E+03   -.176E+01 -.348E+01 0.513E+01
   0.730E+01 -.183E+03 0.244E+02   -.695E+01 0.182E+03 -.274E+02   -.260E+00 0.946E+00 0.293E+01
   0.511E+02 -.155E+03 0.163E+03   -.513E+02 0.159E+03 -.169E+03   0.146E+00 -.404E+01 0.506E+01
   0.354E+02 -.161E+03 0.494E+02   -.332E+02 0.161E+03 -.534E+02   -.190E+01 0.649E+00 0.380E+01
   -.335E+02 -.147E+03 0.227E+03   0.291E+02 0.146E+03 -.235E+03   0.397E+01 0.349E+00 0.722E+01
   -.242E+02 -.173E+03 0.686E+01   0.234E+02 0.172E+03 -.772E+01   0.663E+00 0.783E+00 0.919E+00
   -.203E+02 -.300E+02 0.155E+03   0.682E+01 0.287E+02 -.159E+03   0.132E+02 0.154E+01 0.354E+01
   -.336E+02 -.372E+02 -.632E+02   0.331E+02 0.372E+02 0.628E+02   0.560E+00 0.751E-01 0.451E+00
   0.177E+02 -.882E+02 0.129E+03   -.185E+02 0.868E+02 -.129E+03   0.783E+00 0.131E+01 0.415E+00
   0.204E+02 -.469E+02 -.481E+02   -.208E+02 0.447E+02 0.460E+02   0.353E+00 0.186E+01 0.190E+01
   -.135E+02 -.154E+02 0.151E+03   0.279E+02 0.140E+02 -.155E+03   -.142E+02 0.164E+01 0.310E+01
   0.194E+02 -.222E+02 -.747E+02   -.182E+02 0.201E+02 0.748E+02   -.110E+01 0.190E+01 0.274E-01
   -.769E+02 -.806E+02 -.997E+02   0.619E+02 0.794E+02 0.102E+03   0.142E+02 0.980E+00 -.242E+01
   -.401E+02 -.261E+03 0.756E+01   0.483E+02 0.263E+03 -.672E+01   -.728E+01 -.200E+01 -.724E+00
   -.917E+00 -.776E+02 0.368E+02   0.743E+00 0.763E+02 -.356E+02   0.198E+00 0.100E+01 -.112E+01
   0.143E+03 -.134E+03 0.280E+02   -.130E+03 0.131E+03 -.259E+02   -.118E+02 0.224E+01 -.180E+01
   0.596E+02 -.157E+03 0.113E+02   -.384E+02 0.160E+03 -.696E+01   -.205E+02 -.312E+01 -.397E+01
   -.857E+02 -.121E+03 0.858E+01   0.626E+02 0.114E+03 -.639E+01   0.214E+02 0.622E+01 -.200E+01
   -.541E+01 0.136E+03 -.905E+02   0.845E+01 -.132E+03 0.892E+02   -.273E+01 -.337E+01 0.996E+00
   -.201E+02 0.103E+03 -.465E+02   0.180E+02 -.106E+03 0.459E+02   0.186E+01 0.261E+01 0.499E+00
   0.159E+03 0.235E+03 -.125E+03   -.161E+03 -.242E+03 0.129E+03   0.136E+01 0.669E+01 -.369E+01
   0.634E+02 0.501E+02 -.127E+03   -.629E+02 -.514E+02 0.128E+03   -.428E+00 0.121E+01 -.112E+01
   -.258E+03 0.107E+03 -.291E+03   0.266E+03 -.105E+03 0.295E+03   -.746E+01 -.220E+01 -.470E+01
   0.124E+02 0.151E+03 0.248E+03   -.939E+01 -.151E+03 -.247E+03   -.271E+01 0.224E+00 -.114E+01
   -.626E+02 0.212E+03 -.147E+03   0.658E+02 -.215E+03 0.149E+03   -.288E+01 0.190E+01 -.160E+01
   0.123E+02 0.145E+03 0.183E+03   -.149E+02 -.144E+03 -.183E+03   0.234E+01 -.190E+00 -.346E+00
   0.340E+02 0.173E+03 -.193E+02   -.394E+02 -.176E+03 0.216E+02   0.488E+01 0.316E+01 -.186E+01
   -.317E+02 0.125E+03 0.175E+03   0.309E+02 -.124E+03 -.177E+03   0.643E+00 -.804E+00 0.196E+01
   0.715E+01 0.117E+03 0.314E+02   -.712E+01 -.117E+03 -.288E+02   -.513E-01 0.566E+00 -.218E+01
   -.101E+03 -.853E+02 0.486E+03   0.102E+03 0.865E+02 -.492E+03   -.869E+00 -.164E+01 0.640E+01
   -.946E+02 -.733E+02 -.180E+03   0.941E+02 0.790E+02 0.181E+03   0.441E+00 -.510E+01 -.112E+01
   0.166E+03 -.487E+02 0.227E+03   -.163E+03 0.521E+02 -.251E+03   -.252E+01 -.335E+01 0.226E+02
   0.718E+02 -.964E+02 -.144E+03   -.716E+02 0.995E+02 0.143E+03   -.243E+00 -.288E+01 0.133E+01
   0.449E+01 -.536E+02 0.121E+03   -.693E+01 0.519E+02 -.121E+03   0.219E+01 0.153E+01 0.871E-01
   0.277E+02 -.716E+02 -.466E+02   -.273E+02 0.731E+02 0.467E+02   -.338E+00 -.143E+01 -.120E+00
   -.621E+02 0.858E+02 -.922E+02   0.654E+02 -.913E+02 0.947E+02   -.296E+01 0.488E+01 -.229E+01
   0.194E+03 0.298E+03 -.742E+02   -.191E+03 -.301E+03 0.700E+02   -.249E+01 0.224E+01 0.377E+01
   0.117E+01 0.993E+02 -.613E+02   -.402E+00 -.102E+03 0.650E+02   -.686E+00 0.267E+01 -.322E+01
   -.147E+03 0.382E+02 -.316E+02   0.140E+03 -.379E+02 0.339E+02   0.605E+01 -.458E+00 -.193E+01
   0.789E+02 0.106E+03 -.619E+02   -.809E+02 -.108E+03 0.682E+02   0.187E+01 0.149E+01 -.565E+01
   -.199E+02 0.250E+03 -.827E+02   0.261E+02 -.250E+03 0.825E+02   -.564E+01 0.604E+00 0.328E-01
   0.630E+01 -.492E+01 0.403E+01   -.120E+02 0.897E+01 -.410E+01   0.483E+01 -.339E+01 0.745E-01
   0.195E+02 -.293E+03 0.468E+02   -.146E+02 0.314E+03 -.520E+02   -.424E+01 -.177E+02 0.438E+01
   -.199E+02 -.499E+01 0.320E+02   0.240E+02 0.742E+01 -.341E+02   -.341E+01 -.204E+01 0.185E+01
   0.102E+02 -.186E+02 0.825E+01   -.611E+01 0.954E+01 -.792E+01   -.342E+01 0.810E+01 -.392E+00
   0.975E+02 0.659E+02 0.606E+02   -.108E+03 -.778E+02 -.632E+02   0.886E+01 0.103E+02 0.196E+01
   -.211E+02 -.564E+02 0.939E+00   0.148E+02 0.574E+02 -.524E+01   0.533E+01 -.825E+00 0.363E+01
   0.654E+01 -.564E+02 0.621E+02   -.855E+01 0.692E+02 -.630E+02   0.171E+01 -.110E+02 0.928E+00
   0.370E+00 0.664E+02 -.128E+03   0.741E-01 -.778E+02 0.139E+03   -.378E+00 0.968E+01 -.960E+01
   0.266E+02 -.111E+02 0.226E+02   -.297E+02 0.468E+01 -.166E+02   0.264E+01 0.545E+01 -.506E+01
   -.107E+02 0.472E+02 -.368E+02   0.112E+02 -.564E+02 0.377E+02   -.468E+00 0.774E+01 -.790E+00
   -.197E+02 -.250E+02 0.247E+02   0.229E+02 0.219E+02 -.190E+02   -.264E+01 0.261E+01 -.484E+01
   0.121E+02 0.608E+02 -.520E+02   -.133E+02 -.714E+02 0.542E+02   0.104E+01 0.898E+01 -.192E+01
   -.308E+02 0.518E+02 0.116E+03   0.322E+02 -.545E+02 -.117E+03   -.125E+01 0.232E+01 0.610E+00
[...]
   0.278E+02 0.212E+02 -.590E+02   -.299E+02 -.193E+02 0.575E+02   0.180E+01 -.169E+01 0.120E+01
   -.288E+02 0.133E+01 -.111E+03   0.280E+02 -.153E+01 0.111E+03   0.678E+00 0.200E+00 0.388E+00
   0.376E+01 0.702E+02 0.117E+03   0.898E+00 -.665E+02 -.123E+03   -.393E+01 -.308E+01 0.541E+01
   -.122E+02 0.218E+03 -.269E+02   0.123E+02 -.230E+03 0.278E+02   -.923E-01 0.106E+02 -.819E+00
   -.123E+02 0.595E+02 0.974E+02   0.114E+02 -.570E+02 -.101E+03   0.757E+00 -.206E+01 0.303E+01
   0.517E+01 0.208E+03 0.717E+01   -.596E+01 -.221E+03 -.188E+01   0.664E+00 0.115E+02 -.445E+01
   0.155E+02 0.758E+02 0.127E+03   -.198E+02 -.725E+02 -.133E+03   0.364E+01 -.281E+01 0.448E+01
   0.827E+01 0.188E+03 0.467E+01   -.777E+01 -.199E+03 -.316E+01   -.403E+00 0.949E+01 -.127E+01
   -.333E+02 -.960E+02 -.977E+02   0.383E+02 0.107E+03 0.945E+02   -.419E+01 -.942E+01 0.269E+01
   -.341E+02 -.648E+02 -.920E+02   0.374E+02 0.703E+02 0.884E+02   -.285E+01 -.460E+01 0.304E+01
   0.136E+03 0.185E+03 -.149E+03   -.141E+03 -.190E+03 0.163E+03   0.479E+01 0.475E+01 -.116E+02
   0.368E+02 -.541E+02 -.666E+02   -.405E+02 0.594E+02 0.629E+02   0.315E+01 -.453E+01 0.313E+01
   -.674E+02 -.714E+02 -.289E+02   0.698E+02 0.838E+02 0.215E+02   -.202E+01 -.106E+02 0.626E+01
   -.102E+03 0.102E+03 0.273E+02   0.104E+03 -.102E+03 -.288E+02   -.142E+01 0.110E+00 0.149E+01
   0.330E+01 -.390E+02 0.321E+02   -.270E-12 0.109E-11 -.157E-11   -.445E+01 0.346E+02 -.247E+02

 POSITION                                       TOTAL-FORCE (eV/Angst)
      9.11709      7.83208     -1.71875        -0.011218      0.013255      0.042130
      0.03259      6.09286     -7.38645         0.020885      0.025865      0.074183
      2.99835      7.75175     -1.77898         0.004710      0.073708     -0.005617
      3.03261      6.16224     -7.37738        -0.028724      0.063384      0.050729
      6.08217      7.70713     -1.82505        -0.005285      0.099696      0.001582
      6.13254      6.06704     -7.38499         0.054137      0.176122      0.061463
      1.43248      9.41165     -3.88022         0.067913     -0.001845     -0.052228
      1.53178      7.89288     -9.49310         0.073123     -0.086827      0.045713
      4.54402      9.38057     -3.89760        -0.036054      0.013927     -0.119004
      4.57441      7.86286     -9.43669         0.047566     -0.042567      0.069760
      7.54337      9.35920     -3.92040        -0.134088     -0.084623     -0.157831
      7.62314      7.84050     -9.47178        -0.065169     -0.071666      0.056077
      1.24589      6.12217     -4.46660         0.383350      0.220800     -0.082232
      1.47543      4.68730    -10.16341         0.016199     -0.001586      0.071338
      4.57667      6.09861     -4.43883        -0.017796      0.063192     -0.013877
      4.56030      4.77327    -10.21270        -0.010631     -0.105712     -0.011098
      7.94435      6.11768     -4.48455        -0.426899      0.240933     -0.118760
      7.60241      4.71587    -10.20399         0.009752     -0.055610      0.087273
      8.81209     10.98268     -1.12677         0.051083     -0.141673     -0.219601
      9.11188      9.49535     -6.82613         0.160200     -0.091238      0.032156
      3.04187     10.92539     -1.13701         0.013850     -0.156485     -0.006438
      3.25695      9.45695     -6.76607         0.136867      0.065241      0.100524
      6.37945     10.81336     -1.04484        -0.335809     -0.318773      0.091314
      5.71524      9.36193     -6.79549        -0.208724     -0.210881      0.059146
      1.70905      1.50042     -1.72788         0.071799      0.184343     -0.127682
      4.64947      1.33014     -1.91121        -0.050273      0.017439     -0.042906
      4.19632      0.48622     -7.37319        -0.049967     -0.079211      0.018168
      7.75778      1.60887     -1.70692         0.014933      0.019782     -0.058812
      7.53230      0.01985     -7.53143        -0.149231      0.005261     -0.303222
      0.07779      3.28898     -3.91353         0.107496     -0.033280      0.084993
      9.14095      1.74509     -9.60252         0.083192     -0.017155      0.128100
      3.12032      3.26445     -3.77236        -0.055141      0.037533      0.058900
      2.98240      1.80495     -9.69844        -0.149438     -0.102371      0.154871
      6.11036      3.37167     -3.78814        -0.038591      0.021395      0.042886
      6.11096      1.78048     -9.69551        -0.013016     -0.020246      0.186073
      8.89539      0.06312     -4.13853         0.049833     -0.283857      0.452865
      0.06118     -1.46778    -10.08704        -0.012422      0.098240      0.019644
      2.73883     -0.08810     -5.00844        -0.060434     -0.213279      0.338132
      3.13014     -1.43266     -9.99825         0.015039      0.003666      0.002250
      5.92597     -0.01119     -4.68466        -0.067308     -0.031833      0.041733
      6.14616     -1.50257    -10.12066        -0.014257     -0.026425      0.026115
      1.42114      4.86213     -1.32221         0.091890     -0.128496      0.013359
      1.63694      2.92153     -6.80771         0.323936      0.022374     -0.091418
      4.54251      4.82035     -1.25300         0.035214     -0.147762      0.119372
      4.52849      3.26369     -6.83845        -0.362498     -0.115476      0.089764
      7.74644      4.88757     -1.33093        -0.046859     -0.061436      0.121920
      7.77721      3.02934     -6.76368         0.093622      0.256453     -0.095972
      1.43583     11.85083     -1.29687         0.167200     -0.070741      0.022474
      1.58605     10.27131     -7.00197        -0.214769     -0.731414      0.133063
      4.70636     11.71969     -1.40706        -0.092802     -0.046731      0.087817
      4.47977     -1.29419     -7.11166        -0.072574      0.695471     -0.078175
      7.96793     -0.07899     -2.43625         0.425125      0.561162     -0.082612
      7.45452     10.33223     -7.20337         0.185878      0.004337      0.158936
      0.09601      4.74144     -2.78594         0.062825     -0.502042      0.235618
      9.08560      3.77831     -9.75607         0.011250      0.353734     -0.424630
      2.93713      5.32391     -4.05732         0.052330      0.197852     -0.182892
      3.05250      3.74383    -10.06042        -0.039440      0.242720     -0.054778
      6.23794      5.35839     -4.04954        -0.036472      0.071476     -0.163140
      6.06759      3.74166    -10.03622         0.058379      0.293329     -0.095108
      1.45713      7.54012     -3.09489        -0.053290      0.117607      0.076264
[...]
      4.66133      2.12123     -8.44046        -0.013520     -0.181871      0.146530
      7.30148      3.31909     -2.26357         0.093799     -0.083291      0.012276
      7.55628      2.05822     -8.39287         0.037420     -0.002793      0.056549
      1.60211      3.31404     -4.93078        -0.144094     -0.087984      0.261585
      1.46012      1.41495    -10.88268        -0.023463      0.448022     -0.027908
      4.63232      3.42648     -4.94588         0.026851     -0.085803      0.138796
      4.56138      1.39364    -10.85745         0.014890      0.477455     -0.109873
      7.65593      3.37882     -4.88414         0.105337     -0.096535      0.137686
      7.63685      1.46640    -10.88331         0.010980      0.379983     -0.004913
      0.10267      1.83803     -0.54269        -0.161851     -0.401304      0.076286
      3.23132      1.55762     -0.52125        -0.113154     -0.202107      0.059470
      3.26212      1.85539     -6.43861         0.342933      0.318037     -0.573309
      6.16398      1.55439     -0.63908         0.121831     -0.176213      0.063739
      5.97263      0.80128     -6.35948        -0.064225     -0.444817      0.193770
      9.13833      1.02347     -6.18303        -0.358106      0.011207      0.069852
    total drift:                               -0.031586      0.070154      0.028600

  FREE ENERGIE OF THE ION-ELECTRON SYSTEM (eV)
  free  energy   TOTEN  =      -871.76967674 eV

  energy  without entropy=     -871.76075376  energy(sigma->0) =     -871.76521525

 writing wavefunctions