 vasp.6.4.2 20Jul23 (build Mar  2 2025 11:04:54) complex
 executed on              LinuxNV date 2025.03.04  13:32:13
 OpenACC runtime initialized ...    4 GPUs detected

 INCAR:
   PREC = Normal
   ENCUT = 450
   IBRION = -1
   ISPIN = 1
   NSW = 0
   ISIF = 2
   EDIFF = 1E-5
   EDIFFG = -5E-3
   ISTART = 0
   ICHARG = 0
   ISMEAR = 0
   SIGMA = 0.05
   LWAVE = .T.
   LCHARG = .T.
   LREAL = Auto
   LPLANE = .TRUE.
   NPAR = 4
   ALGO = All
   LHFCALC = .TRUE.
   HSE06 = .TRUE.
   HFSCREEN = 0.18
   TIME = 0.4
   AEXX = 0.35
   LMAXFOCK = 4
   PRECFOCK = Fast

 POTCAR:    PAW_PBE Ga_d 06Jul2010
 POTCAR:    PAW_PBE O 08Apr2002
 POTCAR:    PAW_PBE Ga_d 06Jul2010
   VRHFIN =Ga: s2p1

   TITEL  = PAW_PBE Ga_d 06Jul2010
   POMASS =   69.723; ZVAL   =   13.000    mass and valenz
   ENMAX  =  282.691; ENMIN  =  212.018 eV

   TITEL  = PAW_PBE O 08Apr2002
   POMASS =   16.000; ZVAL   =    6.000    mass and valenz
   ENMAX  =  400.000; ENMIN  =  300.000 eV

 Optimization of the real space projectors (new method)

 maximal supplied QI-value         = 16.25
 optimisation between [QCUT,QGAM] = [ 10.73, 21.61] = [ 32.22,130.83] Ry
 Optimized for a Real-space Cutoff    1.42 Angstroem

   l    n(q)    QCUT    max X(q) W(low)/X(q) W(high)/X(q)  e(spline)
   2      8    10.726     7.143    0.22E-03    0.16E-03    0.73E-07
   2      8    10.726     5.586    0.40E-03    0.26E-03    0.10E-06
   0      9    10.726    12.382    0.25E-04    0.21E-05    0.37E-07
   0      9    10.726     6.622    0.42E-04    0.48E-05    0.77E-07
   1      9    10.726     7.935    0.27E-03    0.13E-04    0.16E-06
   1      9    10.726     2.425    0.23E-03    0.15E-04    0.14E-06
 Optimization of the real space projectors (new method)

 maximal supplied QI-value         = 24.76
 optimisation between [QCUT,QGAM] = [ 10.64, 21.54] = [ 31.73,129.89] Ry
 Optimized for a Real-space Cutoff    1.23 Angstroem

   l    n(q)    QCUT    max X(q) W(low)/X(q) W(high)/X(q)  e(spline)
   0      8    10.645    20.381    0.38E-03    0.60E-03    0.15E-06
   0      8    10.645    15.268    0.40E-03    0.65E-03    0.17E-06
   1      7    10.645     5.964    0.30E-03    0.63E-03    0.18E-06
   1      7    10.645     5.382    0.24E-03    0.53E-03    0.16E-06
  PAW_PBE Ga_d 06Jul2010                :
  PAW_PBE O 08Apr2002                   :

 POSCAR: Ga48 O72
  positions in direct lattice
 exchange correlation table for  LEXCH =        8
   RHO(1)=    0.500       N(1)  =     2000
   RHO(2)=  100.500       N(2)  =     4000

 ion  position               nearest neighbor table
   1  0.659  0.000  0.157-  85 1.94  83 1.95  79 1.95  67 2.01  61 2.08  65 2.08
   2  0.659  0.000  0.657-  86 1.94  84 1.95  80 1.95  68 2.01  62 2.08  66 2.08
   3  0.659  0.333  0.157-  87 1.94  81 1.95  79 1.95  69 2.01  63 2.08  61 2.08
   4  0.659  0.333  0.657-  88 1.94  82 1.95  80 1.95  70 2.01  64 2.08  62 2.08
   5  0.659  0.667  0.157-  89 1.94  81 1.95  83 1.95  71 2.01  63 2.08  65 2.08
   6  0.659  0.667  0.657-  90 1.94  82 1.95  84 1.95  72 2.01  64 2.08  66 2.08
   7  0.841  0.167  0.343-  91 1.94  73 1.95  75 1.95  61 2.01  67 2.08  69 2.08
   8  0.841  0.167  0.843-  92 1.94  74 1.95  76 1.95  62 2.01  68 2.08  70 2.08
   9  0.841  0.500  0.343-  93 1.94  77 1.95  75 1.95  63 2.01  71 2.08  69 2.08
  10  0.841  0.500  0.843-  94 1.94  78 1.95  76 1.95  64 2.01  72 2.08  70 2.08
  11  0.841  0.833  0.343-  95 1.94  73 1.95  77 1.95  65 2.01  67 2.08  71 2.08
  12  0.841  0.833  0.843-  96 1.94  74 1.95  78 1.95  66 2.01  68 2.08  72 2.08
  13  0.590  0.167  0.397-  80 1.84  55 1.84  57 1.84  61 1.87
  14  0.590  0.167  0.897-  79 1.84  56 1.84  58 1.84  62 1.87
  15  0.590  0.500  0.397-  82 1.84  59 1.84  57 1.84  63 1.87
  16  0.590  0.500  0.897-  81 1.84  60 1.84  58 1.84  64 1.87
  17  0.590  0.833  0.397-  84 1.84  55 1.84  59 1.84  65 1.87
  18  0.590  0.833  0.897-  83 1.84  56 1.84  60 1.84  66 1.87
  19  0.910  0.000  0.103-  74 1.84  53 1.84  49 1.84  67 1.87
  20  0.910  0.000  0.603-  73 1.84  54 1.84  50 1.84  68 1.87
  21  0.910  0.333  0.103-  76 1.84  51 1.84  49 1.84  69 1.87
  22  0.910  0.333  0.603-  75 1.84  52 1.84  50 1.84  70 1.87
  23  0.910  0.667  0.103-  78 1.84  51 1.84  53 1.84  71 1.87
  24  0.910  0.667  0.603-  77 1.84  52 1.84  54 1.84  72 1.87
  25  0.159  0.167  0.157-  49 1.94 115 1.95 117 1.95 103 2.01  97 2.08  99 2.08
  26  0.159  0.167  0.657-  50 1.94 116 1.95 118 1.95 104 2.01  98 2.08 100 2.08
  27  0.159  0.500  0.157-  51 1.94 117 1.95 119 1.95 105 2.01 101 2.08  99 2.08
  28  0.159  0.500  0.657-  52 1.94 118 1.95 120 1.95 106 2.01 102 2.08 100 2.08
  29  0.159  0.833  0.157-  53 1.94 115 1.95 119 1.95 107 2.01  97 2.08 101 2.08
  30  0.159  0.833  0.657-  54 1.94 116 1.95 120 1.95 108 2.01  98 2.08 102 2.08
  31  0.341  0.000  0.343-  55 1.94 109 1.95 113 1.95  97 2.01 103 2.08 107 2.08
  32  0.341  0.000  0.843-  56 1.94 110 1.95 114 1.95  98 2.01 104 2.08 108 2.08
  33  0.341  0.333  0.343-  57 1.94 111 1.95 109 1.95  99 2.01 105 2.08 103 2.08
  34  0.341  0.333  0.843-  58 1.94 112 1.95 110 1.95 100 2.01 106 2.08 104 2.08
  35  0.341  0.667  0.343-  59 1.94 111 1.95 113 1.95 101 2.01 105 2.08 107 2.08
  36  0.341  0.667  0.843-  60 1.94 112 1.95 114 1.95 102 2.01 106 2.08 108 2.08
  37  0.090  0.000  0.397- 116 1.84  95 1.84  91 1.84  97 1.87
  38  0.090  0.000  0.897- 115 1.84  96 1.84  92 1.84  98 1.87
  39  0.090  0.333  0.397- 118 1.84  93 1.84  91 1.84  99 1.87
  40  0.090  0.333  0.897- 117 1.84  94 1.84  92 1.84 100 1.87
  41  0.090  0.667  0.397- 120 1.84  93 1.84  95 1.84 101 1.87
  42  0.090  0.667  0.897- 119 1.84  94 1.84  96 1.84 102 1.87
  43  0.410  0.167  0.103- 110 1.84  85 1.84  87 1.84 103 1.87
  44  0.410  0.167  0.603- 109 1.84  86 1.84  88 1.84 104 1.87
  45  0.410  0.500  0.103- 112 1.84  89 1.84  87 1.84 105 1.87
  46  0.410  0.500  0.603- 111 1.84  90 1.84  88 1.84 106 1.87
  47  0.410  0.833  0.103- 114 1.84  85 1.84  89 1.84 107 1.87
  48  0.410  0.833  0.603- 113 1.84  86 1.84  90 1.84 108 1.87
  49  0.996  0.167  0.128-  19 1.84  21 1.84  25 1.94
  50  0.996  0.167  0.628-  20 1.84  22 1.84  26 1.94
  51  0.996  0.500  0.128-  21 1.84  23 1.84  27 1.94
  52  0.996  0.500  0.628-  22 1.84  24 1.84  28 1.94
  53  0.996  0.833  0.128-  19 1.84  23 1.84  29 1.94
  54  0.996  0.833  0.628-  20 1.84  24 1.84  30 1.94
  55  0.504  0.000  0.372-  13 1.84  17 1.84  31 1.94
  56  0.504  0.000  0.872-  14 1.84  18 1.84  32 1.94
  57  0.504  0.333  0.372-  15 1.84  13 1.84  33 1.94
  58  0.504  0.333  0.872-  16 1.84  14 1.84  34 1.94
  59  0.504  0.667  0.372-  15 1.84  17 1.84  35 1.94
  60  0.504  0.667  0.872-  16 1.84  18 1.84  36 1.94
[...]
 106  0.327  0.500  0.718-  46 1.87  28 2.01  36 2.08  34 2.08
 107  0.327  0.833  0.218-  47 1.87  29 2.01  31 2.08  35 2.08
 108  0.327  0.833  0.718-  48 1.87  30 2.01  32 2.08  36 2.08
 109  0.335  0.167  0.445-  44 1.84  31 1.95  33 1.95
 110  0.335  0.167  0.945-  43 1.84  32 1.95  34 1.95
 111  0.335  0.500  0.445-  46 1.84  35 1.95  33 1.95
 112  0.335  0.500  0.945-  45 1.84  36 1.95  34 1.95
 113  0.335  0.833  0.445-  48 1.84  31 1.95  35 1.95
 114  0.335  0.833  0.945-  47 1.84  32 1.95  36 1.95
 115  0.165  0.000  0.055-  38 1.84  29 1.95  25 1.95
 116  0.165  0.000  0.555-  37 1.84  30 1.95  26 1.95
 117  0.165  0.333  0.055-  40 1.84  27 1.95  25 1.95
 118  0.165  0.333  0.555-  39 1.84  28 1.95  26 1.95
 119  0.165  0.667  0.055-  42 1.84  27 1.95  29 1.95
 120  0.165  0.667  0.555-  41 1.84  28 1.95  30 1.95

  LATTYP: Found a simple monoclinic cell.
 ALAT       =    11.6348202465
 B/A-ratio  =     0.7858051831
 C/A-ratio  =     1.0554931797
 COS(beta)  =    -0.2379290539

  Lattice vectors:

 A1 = (   0.0000000000,  -2.7682617730, -11.3006977184)
 A2 = (  -9.1427020537,   0.0000000000,   0.0000000000)
 A3 = (   0.0000000000,  12.2804734172,   0.0000000000)

Analysis of symmetry for initial positions (statically):
 Subroutine PRICEL returns following result:

  LATTYP: Found a base centered monoclinic cell.
 ALAT       =    12.2804734172
 B/A-ratio  =     0.2481636699
 C/A-ratio  =     0.4737122036
 COS(beta)  =    -0.2379290539

[...]

  12 primitive cells build up your supercell.

 Routine SETGRP: Setting up the symmetry group for a
 simple monoclinic supercell.

 Subroutine GETGRP returns: Found  4 space group operations
 (whereof  4 operations were pure point group operations)
 out of a pool of  4 trial point group operations.

The static configuration has the point symmetry C_2h.

Analysis of symmetry for dynamics (positions and initial velocities):
 Subroutine PRICEL returns following result:

  LATTYP: Found a base centered monoclinic cell.
 ALAT       =    12.2804734172
 B/A-ratio  =     0.2481636699
 C/A-ratio  =     0.4737122036
 COS(beta)  =    -0.2379290539

  Lattice vectors:

 A1 = (  -1.5237836756,   6.1402367086,   0.0000000000)
 A2 = (   1.5237836756,   6.1402367086,   0.0000000000)
 A3 = (   0.0000000000,  -1.3841308865,  -5.6503488592)

  12 primitive cells build up your supercell.

 Routine SETGRP: Setting up the symmetry group for a
 simple monoclinic supercell.

 Subroutine GETGRP returns: Found  4 space group operations
 (whereof  4 operations were pure point group operations)
 out of a pool of  4 trial point group operations.

The dynamic configuration has the point symmetry C_2h.

 Subroutine INISYM returns: Found  4 space group operations
 (whereof  4 operations are pure point group operations),
 and found    12 'primitive' translations

                                     Primitive cell

  volume of cell :     105.7338

  direct lattice vectors                    reciprocal lattice vectors
    -1.523783676  6.140236709  0.000000000    -0.328130566  0.081430085 -0.019947423
     1.523783676  6.140236709  0.000000000     0.328130566  0.081430085 -0.019947423
     0.000000000 -1.384130887 -5.650348859     0.000000000  0.000000000 -0.176980223

  length of vectors
     6.326485875  6.326485875  5.817410123     0.338671562  0.338671562  0.176980223

  position of ions in fractional coordinates (direct lattice)
     0.658838300  0.658838300  0.314730340
     0.341161700  0.341161700  0.685269660
     0.090474400  0.090474400  0.794786000
     0.909525600  0.909525600  0.205214000
     0.496469130  0.496469130  0.256664090
     0.503530870  0.503530870  0.743335910
     0.173371065  0.173371065  0.563230160
     0.826628935  0.826628935  0.436769840
     0.835495020  0.835495020  0.890845920
     0.164504980  0.164504980  0.109154080

  ion indices of the primitive-cell ions
   primitive index   ion index
                 1           1
                 2           7
                 3          13
                 4          19
                 5          85
                 6          55
                 7          61
                 8          67
                 9          74
                10          79

 KPOINTS: Automatic mesh

Automatic generation of k-mesh.
 Grid dimensions read from file:
 generate k-points for:    2    2    2

 Generating k-lattice:

  Cartesian coordinates                     Fractional coordinates (reciprocal lattice)
[...]
     52     -17.4305      2.00000
     53     -17.3745      2.00000
     54     -17.3745      2.00000
     55     -17.3745      2.00000
     56     -17.3745      2.00000
     57     -17.3240      2.00000
     58     -17.3240      2.00000
     59     -17.3240      2.00000
     60     -17.3240      2.00000
[...]
    622      16.5866      0.00000
    623      16.7277      0.00000
    624      16.8402      0.00000
    625      16.9578      0.00000
    626      17.0538      0.00000
    627      17.1066      0.00000
    628      17.1504      0.00000
    629      17.2259      0.00000
    630      17.2486      0.00000
    631      17.3673      0.00000
    632      17.4019      0.00000
    633      17.4947      0.00000
    634      17.5741      0.00000
    635      17.6763      0.00000
    636      17.8148      0.00000

 soft charge-density along one line, spin component            1
         0         1         2         3         4         5         6         7         8         9
 total charge-density along one line

------------------------ aborting loop because EDIFF is reached ----------------------------------------

  FORCE on cell =-STRESS in cart. coord.  units (eV):
  Direction    XX          YY          ZZ          XY          YZ          ZX
  Alpha Z  5537.53060  5537.53060  5537.53060
  Ewald  -24907.06535-32410.24189-31411.27370    -0.00000 -1842.09890     0.00000
  Hartree 14281.12381  9562.15622 10201.52277     0.00001 -1262.47070     0.00001
  E(xc)   -3928.98298 -3931.90511 -3931.05941     0.00000    -0.45770     0.00000
  Local   -6314.09215  5746.23057  4080.10122    -0.00002  3068.28076     0.00001
  n-local  6781.93574  6723.53716  6742.01357    -0.00000    -8.65560    -0.00001
  augment  5430.21763  5453.24917  5460.92406     0.00000     6.25866    -0.00000
  Kinetic 12432.71411 12643.22017 12636.61162     0.00002    40.30851    -0.00004
  Fock    -9355.73774 -9360.74497 -9355.70355     0.00001     0.32961     0.00001
  Total     -42.35634   -36.96808   -39.33282     0.00000     1.49465     0.00000
  in kB     -53.48525   -46.68126   -49.66732     0.00000     1.88736     0.00000

 VOLUME and BASIS-vectors are now :
  energy-cutoff  :      450.00
  volume of cell :     1268.81
      direct lattice vectors                 reciprocal lattice vectors
     0.000000000 12.280473417  0.000000000     0.000000000  0.081430085 -0.019947423
     9.142702054  0.000000000  0.000000000     0.109376855 -0.000000000  0.000000000
     0.000000000 -2.768261773-11.300697718     0.000000000  0.000000000 -0.088490111

  length of vectors
    12.280473417  9.142702054 11.634820246     0.083837691  0.109376855  0.088490111

 FORCES acting on ions:
    Electron-Ion                     Ewald-Force                    Non-Local-Force
   0.446E-04 0.321E+02 -.843E+02   -.715E-13 -.318E+02 0.892E+02   -.424E-21 -.256E+00 -.458E+01
   -.789E-05 0.321E+02 -.843E+02   -.542E-13 -.318E+02 0.892E+02   0.000E+00 -.256E+00 -.458E+01
   -.891E-04 0.321E+02 -.843E+02   -.663E-10 -.318E+02 0.892E+02   -.318E-21 -.256E+00 -.458E+01
   0.273E-04 0.321E+02 -.843E+02   -.662E-10 -.318E+02 0.892E+02   -.424E-21 -.256E+00 -.458E+01
   0.595E-04 0.321E+02 -.843E+02   0.662E-10 -.318E+02 0.892E+02   0.529E-21 -.256E+00 -.458E+01
   0.715E-05 0.321E+02 -.843E+02   0.662E-10 -.318E+02 0.892E+02   -.424E-21 -.256E+00 -.458E+01
   -.537E-04 -.321E+02 0.843E+02   0.663E-10 0.318E+02 -.892E+02   0.000E+00 0.256E+00 0.458E+01
   -.458E-04 -.321E+02 0.843E+02   0.663E-10 0.318E+02 -.892E+02   -.503E-21 0.256E+00 0.458E+01
   0.109E-04 -.321E+02 0.843E+02   0.320E-13 0.318E+02 -.892E+02   -.424E-21 0.256E+00 0.458E+01
   0.335E-04 -.321E+02 0.843E+02   0.435E-13 0.318E+02 -.892E+02   0.000E+00 0.256E+00 0.458E+01
   0.308E-04 -.321E+02 0.843E+02   -.663E-10 0.318E+02 -.892E+02   0.318E-21 0.256E+00 0.458E+01
   0.145E-04 -.321E+02 0.843E+02   -.662E-10 0.318E+02 -.892E+02   0.212E-21 0.256E+00 0.458E+01
   -.388E-04 -.616E+02 0.366E+02   0.661E-10 0.591E+02 -.383E+02   -.106E-21 0.218E+01 0.165E+01
   -.164E-03 -.616E+02 0.366E+02   0.660E-10 0.591E+02 -.383E+02   -.450E-21 0.218E+01 0.165E+01
   0.261E-04 -.616E+02 0.366E+02   -.124E-13 0.591E+02 -.383E+02   0.000E+00 0.218E+01 0.165E+01
   0.877E-05 -.616E+02 0.366E+02   0.622E-13 0.591E+02 -.383E+02   -.424E-21 0.218E+01 0.165E+01
   0.331E-04 -.616E+02 0.366E+02   -.660E-10 0.591E+02 -.383E+02   0.900E-21 0.218E+01 0.165E+01
   0.154E-03 -.616E+02 0.366E+02   -.661E-10 0.591E+02 -.383E+02   0.106E-21 0.218E+01 0.165E+01
   0.217E-04 0.616E+02 -.366E+02   0.195E-13 -.591E+02 0.383E+02   -.794E-22 -.218E+01 -.165E+01
   0.378E-05 0.616E+02 -.366E+02   0.355E-14 -.591E+02 0.383E+02   0.000E+00 -.218E+01 -.165E+01
   0.204E-04 0.616E+02 -.366E+02   -.660E-10 -.591E+02 0.383E+02   0.291E-21 -.218E+01 -.165E+01
   0.485E-05 0.616E+02 -.366E+02   -.660E-10 -.591E+02 0.383E+02   -.529E-22 -.218E+01 -.165E+01
   -.614E-04 0.616E+02 -.366E+02   0.660E-10 -.591E+02 0.383E+02   0.212E-21 -.218E+01 -.165E+01
   -.141E-04 0.616E+02 -.366E+02   0.660E-10 -.591E+02 0.383E+02   -.159E-21 -.218E+01 -.165E+01
   0.154E-04 0.321E+02 -.843E+02   0.662E-10 -.318E+02 0.892E+02   -.159E-21 -.256E+00 -.458E+01
   -.356E-05 0.321E+02 -.843E+02   0.662E-10 -.318E+02 0.892E+02   -.529E-21 -.256E+00 -.458E+01
   -.260E-04 0.321E+02 -.843E+02   -.128E-12 -.318E+02 0.892E+02   -.106E-21 -.256E+00 -.458E+01
   0.339E-04 0.321E+02 -.843E+02   -.142E-12 -.318E+02 0.892E+02   -.212E-21 -.256E+00 -.458E+01
   0.105E-04 0.321E+02 -.843E+02   -.663E-10 -.318E+02 0.892E+02   -.318E-21 -.256E+00 -.458E+01
   -.278E-04 0.321E+02 -.843E+02   -.663E-10 -.318E+02 0.892E+02   -.635E-21 -.256E+00 -.458E+01
   -.107E-04 -.321E+02 0.843E+02   0.284E-13 0.318E+02 -.892E+02   0.000E+00 0.256E+00 0.458E+01
   -.355E-04 -.321E+02 0.843E+02   0.213E-13 0.318E+02 -.892E+02   -.529E-21 0.256E+00 0.458E+01
   0.487E-04 -.321E+02 0.843E+02   -.662E-10 0.318E+02 -.892E+02   0.106E-21 0.256E+00 0.458E+01
   -.245E-04 -.321E+02 0.843E+02   -.662E-10 0.318E+02 -.892E+02   0.424E-21 0.256E+00 0.458E+01
   -.326E-04 -.321E+02 0.843E+02   0.662E-10 0.318E+02 -.892E+02   0.212E-21 0.256E+00 0.458E+01
   0.504E-04 -.321E+02 0.843E+02   0.663E-10 0.318E+02 -.892E+02   -.529E-22 0.256E+00 0.458E+01
   0.335E-04 -.616E+02 0.366E+02   0.639E-13 0.591E+02 -.383E+02   -.529E-21 0.218E+01 0.165E+01
   0.230E-04 -.616E+02 0.366E+02   0.657E-13 0.591E+02 -.383E+02   -.635E-21 0.218E+01 0.165E+01
   -.324E-04 -.616E+02 0.366E+02   -.659E-10 0.591E+02 -.383E+02   0.354E-21 0.218E+01 0.165E+01
   -.503E-04 -.616E+02 0.366E+02   -.660E-10 0.591E+02 -.383E+02   0.265E-21 0.218E+01 0.165E+01
   -.553E-05 -.616E+02 0.366E+02   0.660E-10 0.591E+02 -.383E+02   0.688E-21 0.218E+01 0.165E+01
   0.431E-04 -.616E+02 0.366E+02   0.660E-10 0.591E+02 -.383E+02   0.106E-21 0.218E+01 0.165E+01
   -.140E-03 0.616E+02 -.366E+02   0.661E-10 -.591E+02 0.383E+02   -.212E-21 -.218E+01 -.165E+01
   0.389E-05 0.616E+02 -.366E+02   0.661E-10 -.591E+02 0.383E+02   -.132E-21 -.218E+01 -.165E+01
   0.256E-04 0.616E+02 -.366E+02   -.178E-13 -.591E+02 0.383E+02   0.000E+00 -.218E+01 -.165E+01
   0.205E-04 0.616E+02 -.366E+02   0.639E-13 -.591E+02 0.383E+02   -.371E-21 -.218E+01 -.165E+01
   0.116E-03 0.616E+02 -.366E+02   -.660E-10 -.591E+02 0.383E+02   0.212E-21 -.218E+01 -.165E+01
   -.253E-04 0.616E+02 -.366E+02   -.660E-10 -.591E+02 0.383E+02   -.132E-21 -.218E+01 -.165E+01
   -.787E-04 -.149E+02 0.147E+02   0.389E-10 0.223E+02 -.186E+02   0.132E-22 -.621E+01 0.328E+01
   -.139E-04 -.149E+02 0.147E+02   0.390E-10 0.223E+02 -.186E+02   0.106E-21 -.621E+01 0.328E+01
   -.138E-04 -.149E+02 0.147E+02   0.444E-14 0.223E+02 -.186E+02   -.794E-22 -.621E+01 0.328E+01
   0.190E-04 -.149E+02 0.147E+02   0.320E-13 0.223E+02 -.186E+02   0.000E+00 -.621E+01 0.328E+01
   0.918E-04 -.149E+02 0.147E+02   -.390E-10 0.223E+02 -.186E+02   -.265E-22 -.621E+01 0.328E+01
   -.636E-05 -.149E+02 0.147E+02   -.390E-10 0.223E+02 -.186E+02   0.000E+00 -.621E+01 0.328E+01
   -.395E-04 0.149E+02 -.147E+02   0.195E-13 -.223E+02 0.186E+02   0.000E+00 0.621E+01 -.328E+01
   -.709E-05 0.149E+02 -.147E+02   0.284E-13 -.223E+02 0.186E+02   0.409E-22 0.621E+01 -.328E+01
   0.486E-04 0.149E+02 -.147E+02   -.390E-10 -.223E+02 0.186E+02   -.199E-22 0.621E+01 -.328E+01
   -.307E-04 0.149E+02 -.147E+02   -.390E-10 -.223E+02 0.186E+02   0.265E-22 0.621E+01 -.328E+01
   0.215E-05 0.149E+02 -.147E+02   0.390E-10 -.223E+02 0.186E+02   -.529E-22 0.621E+01 -.328E+01
   0.293E-04 0.149E+02 -.147E+02   0.390E-10 -.223E+02 0.186E+02   -.711E-22 0.621E+01 -.328E+01
[...]
   0.145E-04 -.630E+02 -.429E+02   -.294E-10 0.611E+02 0.382E+02   0.000E+00 0.164E+01 0.395E+01
   0.956E-05 -.630E+02 -.429E+02   -.294E-10 0.611E+02 0.382E+02   -.132E-22 0.164E+01 0.395E+01
   0.618E-04 0.123E+03 0.662E+02   0.332E-10 -.134E+03 -.627E+02   0.159E-21 0.949E+01 -.300E+01
   -.918E-04 0.123E+03 0.662E+02   0.332E-10 -.134E+03 -.627E+02   -.235E-21 0.949E+01 -.300E+01
   0.102E-04 0.123E+03 0.662E+02   -.533E-13 -.134E+03 -.627E+02   0.265E-21 0.949E+01 -.300E+01
   0.102E-04 0.123E+03 0.662E+02   -.533E-14 -.134E+03 -.627E+02   -.794E-22 0.949E+01 -.300E+01
   -.706E-04 0.123E+03 0.662E+02   -.332E-10 -.134E+03 -.627E+02   0.159E-21 0.949E+01 -.300E+01
   0.885E-04 0.123E+03 0.662E+02   -.332E-10 -.134E+03 -.627E+02   -.146E-21 0.949E+01 -.300E+01
   0.353E-04 -.123E+03 -.662E+02   -.355E-14 0.134E+03 0.627E+02   -.106E-21 -.949E+01 0.300E+01
   0.137E-04 -.123E+03 -.662E+02   -.355E-13 0.134E+03 0.627E+02   -.212E-21 -.949E+01 0.300E+01
   -.689E-04 -.123E+03 -.662E+02   -.333E-10 0.134E+03 0.627E+02   0.106E-21 -.949E+01 0.300E+01
   -.215E-04 -.123E+03 -.662E+02   -.333E-10 0.134E+03 0.627E+02   -.212E-21 -.949E+01 0.300E+01
   0.517E-04 -.123E+03 -.662E+02   0.332E-10 0.134E+03 0.627E+02   -.476E-21 -.949E+01 0.300E+01
   0.167E-04 -.123E+03 -.662E+02   0.332E-10 0.134E+03 0.627E+02   -.106E-21 -.949E+01 0.300E+01
   0.677E-04 0.330E-03 0.465E-04   -.407E-12 -.151E-11 0.860E-12   -.322E-20 -.266E-13 0.133E-13

 POSITION                                       TOTAL-FORCE (eV/Angst)
      0.00000      7.65522     -1.77834        -0.000000      0.015059      0.069273
      0.00000      6.27109     -7.42869        -0.000000      0.015059      0.069273
      3.04757      7.65522     -1.77834        -0.000000      0.015059      0.069273
      3.04757      6.27109     -7.42869        -0.000000      0.015059      0.069273
      6.09513      7.65522     -1.77834        -0.000000      0.015059      0.069273
      6.09513      6.27109     -7.42869         0.000000      0.015059      0.069273
      1.52378      9.38136     -3.87201         0.000000     -0.015059     -0.069273
      1.52378      7.99723     -9.52236        -0.000000     -0.015059     -0.069273
      4.57135      9.38136     -3.87201         0.000000     -0.015059     -0.069273
      4.57135      7.99723     -9.52236        -0.000000     -0.015059     -0.069273
      7.61892      9.38136     -3.87201        -0.000000     -0.015059     -0.069273
      7.61892      7.99723     -9.52236        -0.000000     -0.015059     -0.069273
      1.52378      6.15122     -4.49082         0.000000     -0.064576     -0.013912
      1.52378      4.76709    -10.14117         0.000000     -0.064576     -0.013912
      4.57135      6.15122     -4.49082        -0.000000     -0.064576     -0.013912
      4.57135      4.76709    -10.14117        -0.000000     -0.064576     -0.013912
      7.61892      6.15122     -4.49082         0.000000     -0.064576     -0.013912
      7.61892      4.76709    -10.14117         0.000000     -0.064576     -0.013912
      0.00000     10.88536     -1.15953        -0.000000      0.064576      0.013912
      0.00000      9.50123     -6.80988        -0.000000      0.064576      0.013912
      3.04757     10.88536     -1.15953         0.000000      0.064576      0.013912
      3.04757      9.50123     -6.80988        -0.000000      0.064576      0.013912
      6.09513     10.88536     -1.15953        -0.000000      0.064576      0.013912
      6.09513      9.50123     -6.80988        -0.000000      0.064576      0.013912
      1.52378      1.51498     -1.77834        -0.000000      0.015059      0.069273
      1.52378      0.13085     -7.42869        -0.000000      0.015059      0.069273
      4.57135      1.51498     -1.77834        -0.000000      0.015059      0.069273
      4.57135      0.13085     -7.42869        -0.000000      0.015059      0.069273
      7.61892      1.51498     -1.77834         0.000000      0.015059      0.069273
      7.61892      0.13085     -7.42869         0.000000      0.015059      0.069273
      0.00000      3.24112     -3.87201        -0.000000     -0.015059     -0.069273
      0.00000      1.85699     -9.52236        -0.000000     -0.015059     -0.069273
      3.04757      3.24112     -3.87201        -0.000000     -0.015059     -0.069273
      3.04757      1.85699     -9.52236        -0.000000     -0.015059     -0.069273
      6.09513      3.24112     -3.87201        -0.000000     -0.015059     -0.069273
      6.09513      1.85699     -9.52236        -0.000000     -0.015059     -0.069273
      0.00000      0.01098     -4.49082        -0.000000     -0.064576     -0.013912
      0.00000     -1.37315    -10.14117        -0.000000     -0.064576     -0.013912
      3.04757      0.01098     -4.49082         0.000000     -0.064576     -0.013912
      3.04757     -1.37315    -10.14117        -0.000000     -0.064576     -0.013912
      6.09513      0.01098     -4.49082        -0.000000     -0.064576     -0.013912
      6.09513     -1.37315    -10.14117         0.000000     -0.064576     -0.013912
      1.52378      4.74513     -1.15953        -0.000000      0.064576      0.013912
      1.52378      3.36099     -6.80988         0.000000      0.064576      0.013912
      4.57135      4.74513     -1.15953         0.000000      0.064576      0.013912
      4.57135      3.36099     -6.80988         0.000000      0.064576      0.013912
      7.61892      4.74513     -1.15953        -0.000000      0.064576      0.013912
      7.61892      3.36099     -6.80988        -0.000000      0.064576      0.013912
      1.52378     11.88186     -1.45024        -0.000000     -0.193869      0.094645
      1.52378     10.49773     -7.10059        -0.000000     -0.193869      0.094645
      4.57135     11.88186     -1.45024         0.000000     -0.193869      0.094645
      4.57135     10.49773     -7.10059         0.000000     -0.193869      0.094645
      7.61892     11.88186     -1.45024         0.000000     -0.193869      0.094645
      7.61892     10.49773     -7.10059        -0.000000     -0.193869      0.094645
      0.00000      5.15472     -4.20011         0.000000      0.193869     -0.094645
      0.00000      3.77059     -9.85046         0.000000      0.193869     -0.094645
      3.04757      5.15472     -4.20011        -0.000000      0.193869     -0.094645
      3.04757      3.77059     -9.85046         0.000000      0.193869     -0.094645
      6.09513      5.15472     -4.20011        -0.000000      0.193869     -0.094645
      6.09513      3.77059     -9.85046        -0.000000      0.193869     -0.094645
[...]
      4.57135      2.02248     -8.11825        -0.000000      0.054164      0.106768
      7.61892      3.40661     -2.46790         0.000000      0.054164      0.106768
      7.61892      2.02248     -8.11825         0.000000      0.054164      0.106768
      1.52378      2.88699     -5.03359         0.000000      0.207291     -0.100415
      1.52378      1.50286    -10.68394         0.000000      0.207291     -0.100415
      4.57135      2.88699     -5.03359         0.000000      0.207291     -0.100415
      4.57135      1.50286    -10.68394         0.000000      0.207291     -0.100415
      7.61892      2.88699     -5.03359        -0.000000      0.207291     -0.100415
      7.61892      1.50286    -10.68394        -0.000000      0.207291     -0.100415
      0.00000      1.86912     -0.61676         0.000000     -0.207291      0.100415
      0.00000      0.48498     -6.26711         0.000000     -0.207291      0.100415
      3.04757      1.86912     -0.61676        -0.000000     -0.207291      0.100415
      3.04757      0.48498     -6.26711        -0.000000     -0.207291      0.100415
      6.09513      1.86912     -0.61676         0.000000     -0.207291      0.100415
      6.09513      0.48498     -6.26711        -0.000000     -0.207291      0.100415
    total drift:                                0.000068      0.000330      0.000046

  FREE ENERGIE OF THE ION-ELECTRON SYSTEM (eV)
  free  energy   TOTEN  =      -989.33350750 eV

  energy  without entropy=     -989.33350750  energy(sigma->0) =     -989.33350750

 writing wavefunctions