 vasp.6.4.2 20Jul23 (build Nov 12 2023 22:16:35) complex
 executed on              LinuxNV date 2025.03.09  14:06:52
 OpenACC runtime initialized ...    4 GPUs detected

 INCAR:
   PREC = Normal
   ENCUT = 450
   IBRION = 2
   ISPIN = 1
   NSW = 300
   ISIF = 2
   EDIFF = 1E-5
   EDIFFG = -5E-3
   ALGO = Fast
   ISTART = 0
   ICHARG = 2
   ISMEAR = 1
   SIGMA = 0.2
   LWAVE = .F.
   LCHARG = .F.
   LREAL = Auto
   LPLANE = .TRUE.
   NPAR = 4
   KPAR = 4
   NCORE = 1

 POTCAR:    PAW_PBE Ga_d 06Jul2010
 POTCAR:    PAW_PBE Ga_d 06Jul2010
   VRHFIN =Ga: s2p1

   TITEL  = PAW_PBE Ga_d 06Jul2010
   POMASS =   69.723; ZVAL   =   13.000    mass and valenz
   ENMAX  =  282.691; ENMIN  =  212.018 eV

 Optimization of the real space projectors (new method)

 maximal supplied QI-value         = 16.25
 optimisation between [QCUT,QGAM] = [ 10.73, 21.61] = [ 32.22,130.83] Ry
 Optimized for a Real-space Cutoff    1.42 Angstroem

   l    n(q)    QCUT    max X(q) W(low)/X(q) W(high)/X(q)  e(spline)
   2      8    10.726     7.143    0.22E-03    0.16E-03    0.73E-07
   2      8    10.726     5.586    0.40E-03    0.26E-03    0.10E-06
   0      9    10.726    12.382    0.25E-04    0.21E-05    0.37E-07
   0      9    10.726     6.622    0.42E-04    0.48E-05    0.77E-07
   1      9    10.726     7.935    0.27E-03    0.13E-04    0.16E-06
   1      9    10.726     2.425    0.23E-03    0.15E-04    0.14E-06
  PAW_PBE Ga_d 06Jul2010                :

 POSCAR: Ga8
  positions in direct lattice
 exchange correlation table for  LEXCH =        8
   RHO(1)=    0.500       N(1)  =     2000
   RHO(2)=  100.500       N(2)  =     4000

 ion  position               nearest neighbor table
   1  0.000  0.344  0.415-   3 2.49   8 2.68   8 2.68   2 2.69   2 2.69   7 2.75   7 2.75
   2  0.000  0.156  0.915-   4 2.49   7 2.68   7 2.68   1 2.69   1 2.69   8 2.75   8 2.75
   3  0.000  0.656  0.585-   1 2.49   6 2.68   6 2.68   4 2.69   4 2.69   5 2.75   5 2.75
   4  0.000  0.844  0.085-   2 2.49   5 2.68   5 2.68   3 2.69   3 2.69   6 2.75   6 2.75
   5  0.500  0.844  0.415-   7 2.49   4 2.68   4 2.68   6 2.69   6 2.69   3 2.75   3 2.75
   6  0.500  0.656  0.915-   8 2.49   3 2.68   3 2.68   5 2.69   5 2.69   4 2.75   4 2.75
   7  0.500  0.156  0.585-   5 2.49   2 2.68   2 2.68   8 2.69   8 2.69   1 2.75   1 2.75
   8  0.500  0.344  0.085-   6 2.49   1 2.68   1 2.68   7 2.69   7 2.69   2 2.75   2 2.75

  LATTYP: Found a simple orthorhombic cell.
 ALAT       =     4.4320466607
 B/A-ratio  =     1.0278554985
 C/A-ratio  =     1.7143284496

  Lattice vectors:

 A1 = (  -4.4320466607,   0.0000000000,  -0.0000000000)
 A2 = (   0.0000000000,   0.0000000000,   4.5555035300)
 A3 = (  -0.0000000000,   7.5979836803,   0.0000000000)

Analysis of symmetry for initial positions (statically):
 Subroutine PRICEL returns following result:

  LATTYP: Found a base centered orthorhombic cell.
 ALAT       =     4.4320466607
 B/A-ratio  =     1.7143284496
 C/A-ratio  =     1.0278554985

[...]

   2 primitive cells build up your supercell.

 Routine SETGRP: Setting up the symmetry group for a
 simple orthorhombic supercell.

 Subroutine GETGRP returns: Found  8 space group operations
 (whereof  4 operations were pure point group operations)
 out of a pool of  8 trial point group operations.

The static configuration has the point symmetry C_2h.
 The point group associated with its full space group is D_2h.

Analysis of symmetry for dynamics (positions and initial velocities):
 Subroutine PRICEL returns following result:

  LATTYP: Found a base centered orthorhombic cell.
 ALAT       =     4.4320466607
 B/A-ratio  =     1.7143284496
 C/A-ratio  =     1.0278554985

  Lattice vectors:

 A1 = (   2.2160233304,  -3.7989918401,   0.0000000000)
 A2 = (   2.2160233304,   3.7989918401,   0.0000000000)
 A3 = (   0.0000000000,   0.0000000000,   4.5555035300)

   2 primitive cells build up your supercell.

 Routine SETGRP: Setting up the symmetry group for a
 simple orthorhombic supercell.

 Subroutine GETGRP returns: Found  8 space group operations
 (whereof  4 operations were pure point group operations)
 out of a pool of  8 trial point group operations.

The dynamic configuration has the point symmetry C_2h.
 The point group associated with its full space group is D_2h.

 Subroutine INISYM returns: Found  8 space group operations
 (whereof  4 operations are pure point group operations),
 and found     2 'primitive' translations

                                     Primitive cell

  volume of cell :      76.7024

  direct lattice vectors                    reciprocal lattice vectors
     2.216023330 -3.798991840  0.000000000     0.225629393 -0.131613865  0.000000000
     2.216023330  3.798991840  0.000000000     0.225629393  0.131613865 -0.000000000
     0.000000000  0.000000000  4.555503530    -0.000000000 -0.000000000  0.219514702

  length of vectors
     4.398078945  4.398078945  4.555503530     0.261210323  0.261210323  0.219514702

  position of ions in fractional coordinates (direct lattice)
     0.655695720  0.344304280  0.415401390
     0.844304280  0.155695720  0.915401390
     0.344304280  0.655695720  0.584598610
     0.155695720  0.844304280  0.084598610

  ion indices of the primitive-cell ions
   primitive index   ion index
                 1           1
                 2           2
                 3           3
                 4           4

 KPOINTS: Automatic mesh

Automatic generation of k-mesh.
 Grid dimensions read from file:
 generate k-points for:    2    2    2

 Generating k-lattice:

  Cartesian coordinates                     Fractional coordinates (reciprocal lattice)
     0.112814697  0.000000000 -0.000000000     0.500000000 -0.000000000  0.000000000
     0.000000000  0.065806933  0.000000000     0.000000000  0.500000000  0.000000000
    -0.000000000 -0.000000000  0.109757351     0.000000000 -0.000000000  0.500000000

  Length of vectors
     0.112814697  0.065806933  0.109757351

  Shift w.r.t. Gamma in fractional coordinates (k-lattice)
     0.000000000  0.000000000  0.000000000

 Subroutine IBZKPT returns following result:

 Found      8 irreducible k-points:

 Following reciprocal coordinates:
            Coordinates               Weight
  0.000000  0.000000  0.000000      1.000000
  0.500000  0.000000  0.000000      1.000000
  0.000000  0.500000  0.000000      1.000000
  0.500000  0.500000  0.000000      1.000000
  0.000000  0.000000  0.500000      1.000000
  0.500000  0.000000  0.500000      1.000000
  0.000000  0.500000  0.500000      1.000000
  0.500000  0.500000  0.500000      1.000000

 Following cartesian coordinates:
            Coordinates               Weight
  0.000000  0.000000  0.000000      1.000000
  0.112815  0.000000  0.000000      1.000000
  0.000000  0.065807  0.000000      1.000000
  0.112815  0.065807  0.000000      1.000000
  0.000000  0.000000  0.109757      1.000000
  0.112815  0.000000  0.109757      1.000000
  0.000000  0.065807  0.109757      1.000000
  0.112815  0.065807  0.109757      1.000000

 SYSTEM =  unknown system
 POSCAR =  Ga8

 Startparameter for this run:
   NWRITE =      2    write-flag & timer
   PREC   = normal    normal or accurate (medium, high low for compatibility)
   ISTART =      0    job   : 0-new  1-cont  2-samecut
   ICHARG =      2    charge: 1-file 2-atom 10-const
   ISPIN  =      1    spin polarized calculation?
   LNONCOLLINEAR =      F non collinear calculations
   LSORBIT =      F    spin-orbit coupling
   INIWAV =      1    electr: 0-lowe 1-rand  2-diag
   LASPH  =      F    aspherical Exc in radial PAW
 Electronic Relaxation 1
   ENCUT  =  450.0 eV  33.07 Ry    5.75 a.u.   7.67 13.14  7.88*2*pi/ulx,y,z
   ENINI  =  450.0     initial cutoff
   ENAUG  =  490.7 eV  augmentation charge cutoff
   NELM   =     60;   NELMIN=  2; NELMDL= -5     # of ELM steps
   EDIFF  = 0.1E-04   stopping-criterion for ELM
   LREAL  =      T    real-space projection
   NLSPLINE    = F    spline interpolate recip. space projectors
   LCOMPAT=      F    compatible to vasp.4.4
   GGA_COMPAT  = T    GGA compatible to vasp.4.4-vasp.4.6
   LMAXPAW     = -100 max onsite density
   LMAXMIX     =    2 max onsite mixed and CHGCAR
   VOSKOWN=      0    Vosko Wilk Nusair interpolation
   ROPT   =   -0.00050
 Ionic relaxation
   EDIFFG = -.5E-02   stopping-criterion for IOM
   NSW    =    300    number of steps for IOM
   NBLOCK =      1;   KBLOCK =    300    inner block; outer block
   IBRION =      2    ionic relax: 0-MD 1-quasi-New 2-CG
   NFREE  =      1    steps in history (QN), initial steepest desc. (CG)
   ISIF   =      2    stress and relaxation
   IWAVPR =     11    prediction:  0-non 1-charg 2-wave 3-comb
   ISYM   =      2    0-nonsym 1-usesym 2-fastsym
   LCORR  =      T    Harris-Foulkes like correction to forces

   POTIM  = 0.5000    time-step for ionic-motion
   TEIN   =    0.0    initial temperature
   TEBEG  =    0.0;   TEEND  =   0.0 temperature during run
   SMASS  =  -3.00    Nose mass-parameter (am)
   estimated Nose-frequenzy (Omega)   =  0.10E-29 period in steps = 0.13E+47 mass=  -0.449E-27a.u.
   SCALEE = 1.0000    scale energy and forces
   NPACO  =    256;   APACO  = 10.0  distance and # of slots for P.C.
   PSTRESS=    0.0 pullay stress

  Mass of Ions in am
   POMASS =  69.72
  Ionic Valenz
   ZVAL   =  13.00
  Atomic Wigner-Seitz radii
  virtual crystal weights
   VCA    =   1.00
   NELECT =     104.0000    total number of electrons
   NUPDOWN=      -1.0000    fix difference up-down

 DOS related values:
   EMIN   =  10.00;   EMAX   =-10.00  energy-range for DOS
   EFERMI =   0.00;   METHOD = LEGACY
   ISMEAR =     1;   SIGMA  =   0.20  broadening in eV -4-tet -1-fermi 0-gaus

 Electronic relaxation 2 (details)
   IALGO  =     68    algorithm
   LDIAG  =      T    sub-space diagonalisation (order eigenvalues)
   LSUBROT=      F    optimize rotation matrix (better conditioning)
   TURBO    =      0    0=normal 1=particle mesh
   IRESTART =      0    0=no restart 2=restart with 2 vectors
   NREBOOT  =      0    no. of reboots
   NMIN     =      0    reboot dimension
   EREF     =   0.00    reference energy to select bands
   IMIX   =      4    mixing-type and parameters
     AMIX     =   0.40;   BMIX     =  1.00
     AMIX_MAG =   1.60;   BMIX_MAG =  1.00
     AMIN     =   0.10
     WC   =   100.;   INIMIX=   1;  MIXPRE=   1;  MAXMIX= -45

 Intra band minimization:
   WEIMIN = 0.0010     energy-eigenvalue tresh-hold
   EBREAK =  0.40E-07  absolut break condition
   DEPER  =   0.30     relativ break condition

   TIME   =   0.40     timestep for ELM

  volume/ion in A,a.u.               =      19.18       129.40
  Fermi-wavevector in a.u.,A,eV,Ry     =   1.438157  2.717722 28.140864  2.068295
  Thomas-Fermi vector in A             =   2.557155

 Write flags
   LWAVE        =      F    write WAVECAR
   LDOWNSAMPLE  =      F    k-point downsampling of WAVECAR
   LCHARG       =      F    write CHGCAR
   LVTOT        =      F    write LOCPOT, total local potential
   LVHAR        =      F    write LOCPOT, Hartree potential only
   LELF         =      F    write electronic localiz. function (ELF)
   LORBIT       =      0    0 simple, 1 ext, 2 COOP (PROOUT), +10 PAW based schemes

[...]
     58       8.7776     -0.00000
     59       9.0537     -0.00000
     60       9.5419     -0.00000
     61      10.6113      0.00000
     62      10.6885      0.00000

[...]

 soft charge-density along one line, spin component            1
         0         1         2         3         4         5         6         7         8         9
 total charge-density along one line

------------------------ aborting loop because EDIFF is reached ----------------------------------------

  FORCE on cell =-STRESS in cart. coord.  units (eV):
  Direction    XX          YY          ZZ          XY          YZ          ZX
  Alpha Z   563.37210   563.37210   563.37210
  Ewald   -3119.45720 -3701.61748 -3306.97730     0.00000    -0.00000    -0.00000
  Hartree  1720.31235  1258.55951  1590.39193    -0.00000    -0.00000    -0.00000
  E(xc)    -627.55129  -627.66058  -627.68266     0.00000     0.00000    -0.00000
  Local    -108.92725   944.47900   209.60865    -0.00000     0.00000     0.00000
  n-local    82.16508    81.62846    81.73445     0.00000    -0.00029    -0.00029
  augment   977.83322   973.49588   976.93112    -0.00000    -0.00000    -0.00000
  Kinetic   524.79745   504.51453   518.15466    -0.00003     0.00018     0.00013
  Fock        0.00000     0.00000     0.00000     0.00000     0.00000     0.00000
  Total      12.54445    -3.22857     5.53295     0.00000    -0.00000     0.00000
  in kB     131.01567   -33.71957    57.78673     0.00000    -0.00000     0.00000

 VOLUME and BASIS-vectors are now :
  energy-cutoff  :      450.00
  volume of cell :      153.40
      direct lattice vectors                 reciprocal lattice vectors
     4.432046661  0.000000000  0.000000000     0.225629393  0.000000000 -0.000000000
    -0.000000000  7.597983680  0.000000000     0.000000000  0.131613865  0.000000000
     0.000000000  0.000000000  4.555503530    -0.000000000 -0.000000000  0.219514702

[...]

 FORCES acting on ions
    electron-ion (+dipol)            ewald-force                    non-local-force                 convergence-correction
   -.333E-13 -.791E+02 -.938E+01   -.879E-13 0.800E+02 0.101E+02   0.962E-16 -.146E+01 -.941E+00   0.834E-13 -.566E-02 0.132E-02
   -.370E-13 0.791E+02 -.938E+01   -.134E-13 -.800E+02 0.101E+02   -.962E-16 0.146E+01 -.941E+00   0.197E-12 0.566E-02 0.132E-02
   -.987E-13 0.791E+02 0.938E+01   0.755E-13 -.800E+02 -.101E+02   -.962E-16 0.146E+01 0.941E+00   0.507E-13 0.566E-02 -.132E-02
   -.144E-12 -.791E+02 0.938E+01   -.703E-15 0.800E+02 -.101E+02   0.962E-16 -.146E+01 0.941E+00   -.397E-13 -.566E-02 -.132E-02
   0.977E-12 -.791E+02 -.938E+01   -.768E-13 0.800E+02 0.101E+02   0.962E-16 -.146E+01 -.941E+00   0.565E-13 -.566E-02 0.132E-02
   0.983E-12 0.791E+02 -.938E+01   -.225E-14 -.800E+02 0.101E+02   -.962E-16 0.146E+01 -.941E+00   0.131E-12 0.566E-02 0.132E-02
   0.884E-12 0.791E+02 0.938E+01   0.865E-13 -.800E+02 -.101E+02   -.962E-16 0.146E+01 0.941E+00   0.120E-13 0.566E-02 -.132E-02
   0.807E-12 -.791E+02 0.938E+01   0.105E-13 0.800E+02 -.101E+02   0.962E-16 -.146E+01 0.941E+00   -.935E-13 -.566E-02 -.132E-02
   0.334E-11 0.662E-11 0.501E-11   -.862E-14 -.284E-13 -.178E-14   -.891E-20 -.444E-15 -.222E-15   0.398E-12 0.480E-12 0.361E-12

 POSITION                                       TOTAL-FORCE (eV/Angst)
     -0.00000      2.61602      1.89236         0.000000     -0.619238     -0.235686
     -0.00000      1.18297      4.17011        -0.000000      0.619238     -0.235686
     -0.00000      4.98197      2.66314        -0.000000      0.619238      0.235686
     -0.00000      6.41501      0.38539         0.000000     -0.619238      0.235686
      2.21602      6.41501      1.89236         0.000000     -0.619238     -0.235686
      2.21602      4.98197      4.17011        -0.000000      0.619238     -0.235686
      2.21602      1.18297      2.66314        -0.000000      0.619238      0.235686
      2.21602      2.61602      0.38539         0.000000     -0.619238      0.235686
    total drift:                                0.000000      0.000000      0.000000

  FREE ENERGIE OF THE ION-ELECTRON SYSTEM (eV)
  free  energy   TOTEN  =       -21.47365408 eV

  energy  without entropy=      -21.42275252  energy(sigma->0) =      -21.45668689

[...]

 d Force = 0.1410996E+00[ 0.113E+00, 0.169E+00]  d Energy = 0.1500057E+00-0.891E-02
 d Force =-0.2313439E+02[-0.262E+02,-0.200E+02]  d Ewald  =-0.2319812E+02 0.637E-01

 Steepest descent step on ions:
 trial-energy change:   -0.150006  1 .order   -0.141100   -0.169429   -0.112770
  (g-gl).g = 0.169E+00      g.g   = 0.169E+00  gl.gl    = 0.000E+00
 g(Force)  = 0.169E+00   g(Stress)= 0.000E+00 ortho     = 0.000E+00
 gamma     =   0.00000
 trial     =   1.00000
 opt step  =   1.75073  (harmonic =   2.99030) maximal distance =0.05230082
 next E    =   -21.669758   (d E  =  -0.19610)

[...]

 d Force = 0.6729000E-04[ 0.890E-05, 0.126E-03]  d Energy = 0.1398557E-03-0.726E-04
 d Force =-0.1167929E+01[-0.117E+01,-0.116E+01]  d Ewald  =-0.1167932E+01 0.303E-05

[...]

 d Force = 0.7805663E-02[ 0.678E-02, 0.883E-02]  d Energy = 0.8123688E-02-0.318E-03
 d Force = 0.3001981E+00[ 0.269E+00, 0.332E+00]  d Ewald  = 0.3002632E+00-0.651E-04

 Conjugate gradient step on ions:
 trial-energy change:   -0.008124  1 .order   -0.007806   -0.008830   -0.006781
  (g-gl).g = 0.702E-02      g.g   = 0.727E-02  gl.gl    = 0.169E+00
 g(Force)  = 0.727E-02   g(Stress)= 0.000E+00 ortho     = 0.243E-03
 gamma     =   0.04144
 trial     =   1.21378
 opt step  =   4.85512  (harmonic =   5.22991) maximal distance =0.03240024
 next E    =   -21.702502   (d E  =  -0.01902)

[...]

 d Force = 0.6821700E-05[-0.162E-04, 0.298E-04]  d Energy = 0.7769019E-04-0.709E-04
 d Force = 0.1983691E-02[ 0.132E-02, 0.265E-02]  d Ewald  = 0.1983790E-02-0.989E-07

[...]

 d Force =-0.2270689E-04[-0.511E-04, 0.570E-05]  d Energy =-0.2634352E-04 0.364E-05
 d Force =-0.5455680E-03[-0.628E-03,-0.463E-03]  d Ewald  =-0.5455722E-03 0.424E-08

[...]

 Conjugate gradient step on ions:
 trial-energy change:   -0.000085  1 .order   -0.000004   -0.000105    0.000096
  (g-gl).g =-0.689E-04      g.g   = 0.480E-04  gl.gl    = 0.727E-02
 g(Force)  = 0.480E-04   g(Stress)= 0.000E+00 ortho     = 0.127E-05
 gamma     =  -0.00949
 trial     =   2.18814
 opt step  =   1.84117  (harmonic =   1.14195) maximal distance =0.00095911
 next E    =   -21.707350   (d E  =  -0.00009)

[...]

 d Force = 0.4669892E-05[-0.590E-05, 0.152E-04]  d Energy =-0.4693417E-04 0.516E-04
 d Force =-0.1876854E+00[-0.188E+00,-0.188E+00]  d Ewald  =-0.1877351E+00 0.497E-04

[...]

 d Force = 0.7690135E-07[-0.367E-06, 0.521E-06]  d Energy =-0.4953517E-04 0.496E-04
 d Force =-0.2233163E-01[-0.223E-01,-0.223E-01]  d Ewald  =-0.2238132E-01 0.497E-04

[...]

 d Force = 0.1689469E-08[-0.149E-06, 0.152E-06]  d Energy =-0.3596142E-08 0.529E-08
 d Force = 0.9233937E-02[ 0.923E-02, 0.923E-02]  d Ewald  = 0.9233937E-02 0.534E-11

[...]

 eigenvalue-minimisations  :    13
 total energy-change (2. order) :-0.4165486E-09  ( 0.2413377-128)
 number of electron     103.9999985 magnetization
 augmentation part       67.1956296 magnetization

[...]

 d Force = 0.3398618E-07[-0.548E-08, 0.735E-07]  d Energy = 0.3514469E-07-0.116E-08
 d Force =-0.4565004E-02[-0.457E-02,-0.456E-02]  d Ewald  =-0.4565004E-02-0.309E-10

[...]

 d Force = 0.1372221E-06[-0.424E-06, 0.698E-06]  d Energy = 0.2930919E-06-0.156E-06
 d Force = 0.1495169E-01[ 0.150E-01, 0.150E-01]  d Ewald  = 0.1495169E-01 0.533E-10

[...]

 d Force =-0.2967550E-07[-0.219E-06, 0.160E-06]  d Energy =-0.2407978E-07-0.560E-08
 d Force =-0.5647557E-02[-0.565E-02,-0.565E-02]  d Ewald  =-0.5647557E-02-0.389E-10

[...]

 d Force = 0.7341960E-07[ 0.199E-07, 0.127E-06]  d Energy = 0.6556820E-07 0.785E-08
 d Force = 0.3265279E-02[ 0.327E-02, 0.327E-02]  d Ewald  = 0.3265279E-02 0.753E-11

--------------------------------------- Ionic step       26  -------------------------------------------

[...]

 eigenvalue-minimisations  :  1036
 total energy-change (2. order) : 0.1021290E-04  (-0.2106033E-02)
 number of electron     103.9999962 magnetization
 augmentation part       67.1959672 magnetization

[...]

 Broyden mixing:
  rms(total) = 0.20302E-03    rms(broyden)= 0.20224E-03
  rms(prec ) = 0.28969E-03
  weight for this iteration     100.00

 eigenvalues of (default mixing * dielectric matrix)
  average eigenvalue GAMMA=   1.2968
  1.2968  1.2968

[...]

--------------------------------------- Iteration     26(   4)  ---------------------------------------

 eigenvalue-minimisations  :   640
 total energy-change (2. order) :-0.2224572E-05  (-0.2306931E-05)
 number of electron     103.9999962 magnetization
 augmentation part       67.1960947 magnetization

 Free energy of the ion-electron system (eV)
  alpha Z        PSCENC =       563.37210189
  Ewald energy   TEWEN  =    -10075.62109696
  -Hartree energ DENC   =     -4618.56517368
  -exchange      EXHF   =         0.00000000
  -V(xc)+E(xc)   XCENC  =       350.64468378
  PAW double counting   =     13957.08897440   -16628.42009483
  entropy T*S    EENTRO =        -0.03949485
  eigenvalues    EBANDS =      -760.77525972
  atomic energy  EATOM  =     17190.60795778
  Solvation  Ediel_sol  =         0.00000000
  free energy    TOTEN  =       -21.70740219 eV

  energy without entropy =      -21.66790734  energy(sigma->0) =      -21.69423724

 average (electrostatic) potential at core
  the test charge radii are     1.0314
  (the norm of the test charge is              1.0000)
       1 -65.2584       2 -65.2584       3 -65.2584       4 -65.2584       5 -65.2584
       6 -65.2584       7 -65.2584       8 -65.2584

 E-fermi :   5.0096     XC(G=0): -10.7324     alpha+bet :-11.4379

 Fermi energy:         5.0095696840

[...]

 k-point     8 :       0.5000    0.5000    0.5000
  band No.  band energies     occupation
      1      -9.9652      2.00000
      2      -9.9652      2.00000
      3      -9.9652      2.00000
      4      -9.9652      2.00000
      5      -9.9379      2.00000
      6      -9.9379      2.00000
      7      -9.9379      2.00000
      8      -9.9379      2.00000
      9      -9.8964      2.00000
     10      -9.8964      2.00000
     11      -9.8964      2.00000
     12      -9.8964      2.00000
     13      -9.8935      2.00000
     14      -9.8935      2.00000
     15      -9.8935      2.00000
     16      -9.8935      2.00000
     17      -9.6728      2.00000
     18      -9.6728      2.00000
     19      -9.6728      2.00000
     20      -9.6728      2.00000
     21      -9.6599      2.00000
     22      -9.6599      2.00000
     23      -9.6599      2.00000
     24      -9.6599      2.00000
     25      -9.5647      2.00000
     26      -9.5647      2.00000
     27      -9.5647      2.00000
     28      -9.5647      2.00000
     29      -9.5611      2.00000
     30      -9.5611      2.00000
     31      -9.5611      2.00000
     32      -9.5611      2.00000
     33      -9.4652      2.00000
     34      -9.4652      2.00000
     35      -9.4652      2.00000
     36      -9.4652      2.00000
     37      -9.4258      2.00000
     38      -9.4258      2.00000
     39      -9.4258      2.00000
     40      -9.4258      2.00000
     41      -1.9922      2.00000
     42      -1.9922      2.00000
     43      -1.9922      2.00000
     44      -1.9922      2.00000
     45      -1.2704      2.00000
     46      -1.2704      2.00000
     47      -1.2704      2.00000
     48      -1.2704      2.00000
     49       3.7916      2.00000
     50       3.7916      2.00000
     51       3.7916      2.00000
     52       3.7916      2.00000
     53       5.8273     -0.00000
     54       5.8273     -0.00000
     55       5.8273     -0.00000
     56       5.8273     -0.00000
     57      12.8454      0.00000
     58      12.8454      0.00000
     59      12.8706      0.00000
     60      12.8955      0.00000
     61      12.9006      0.00000
     62      12.9006      0.00000

 soft charge-density along one line, spin component            1
         0         1         2         3         4         5         6         7         8         9
 total charge-density along one line

------------------------ aborting loop because EDIFF is reached ----------------------------------------

  FORCE on cell =-STRESS in cart. coord.  units (eV):
  Direction    XX          YY          ZZ          XY          YZ          ZX
  Alpha Z   563.37210   563.37210   563.37210
  Ewald   -2816.29772 -4192.38315 -3066.95774     0.00000    -0.00000    -0.00000
  Hartree  1922.94155   944.53142  1751.09419    -0.00000    -0.00000    -0.00000
  E(xc)    -627.44492  -628.14420  -627.60594     0.00000     0.00000     0.00000
  Local    -614.97249  1748.02137  -190.45583    -0.00000     0.00000    -0.00000
  n-local    84.87496    75.50791    83.65345     0.00003    -0.00000     0.00001
  augment   977.73476   975.36093   976.45931    -0.00000    -0.00000     0.00000
  Kinetic   525.83831   507.18970   515.15162    -0.00001     0.00000    -0.00000
  Fock        0.00000     0.00000     0.00000     0.00000     0.00000     0.00000
  Total      16.04656    -6.54393     4.71116     0.00000    -0.00000     0.00000
  in kB     167.59204   -68.34550    49.20387     0.00000    -0.00000     0.00000

 VOLUME and BASIS-vectors are now :
  energy-cutoff  :      450.00
  volume of cell :      153.40
      direct lattice vectors                 reciprocal lattice vectors
     4.432046661  0.000000000  0.000000000     0.225629393  0.000000000 -0.000000000
    -0.000000000  7.597983680  0.000000000     0.000000000  0.131613865  0.000000000
     0.000000000  0.000000000  4.555503530    -0.000000000 -0.000000000  0.219514702

  length of vectors
     4.432046661  7.597983680  4.555503530     0.225629393  0.131613865  0.219514702

 FORCES acting on ions
    electron-ion (+dipol)            ewald-force                    non-local-force                 convergence-correction
   -.303E-13 -.123E+03 -.197E+02   -.122E-12 0.124E+03 0.200E+02   0.791E-16 -.120E+01 -.315E+00   -.417E-14 -.183E-02 -.687E-02
   -.475E-13 0.123E+03 -.197E+02   0.108E-13 -.124E+03 0.200E+02   -.791E-16 0.120E+01 -.315E+00   -.878E-13 0.183E-02 -.687E-02
   -.817E-13 0.123E+03 0.197E+02   0.120E-12 -.124E+03 -.200E+02   -.791E-16 0.120E+01 0.315E+00   0.928E-13 0.183E-02 0.687E-02
   -.157E-12 -.123E+03 0.197E+02   0.303E-15 0.124E+03 -.200E+02   0.791E-16 -.120E+01 0.315E+00   0.152E-12 -.183E-02 0.687E-02
   0.111E-11 -.123E+03 -.197E+02   -.124E-12 0.124E+03 0.200E+02   0.791E-16 -.120E+01 -.315E+00   0.294E-14 -.183E-02 -.687E-02
   0.102E-11 0.123E+03 -.197E+02   -.796E-15 -.124E+03 0.200E+02   -.791E-16 0.120E+01 -.315E+00   -.974E-13 0.183E-02 -.687E-02
   0.868E-12 0.123E+03 0.197E+02   0.118E-12 -.124E+03 -.200E+02   -.791E-16 0.120E+01 0.315E+00   0.901E-13 0.183E-02 0.687E-02
   0.963E-12 -.123E+03 0.197E+02   -.111E-13 0.124E+03 -.200E+02   0.791E-16 -.120E+01 0.315E+00   0.633E-13 -.183E-02 0.687E-02
   0.365E-11 0.435E-11 0.190E-11   -.860E-14 -.142E-13 -.355E-14   0.111E-23 -.666E-15 0.555E-16   0.211E-12 -.727E-12 0.308E-11

 POSITION                                       TOTAL-FORCE (eV/Angst)
     -0.00000      2.56208      1.82712        -0.000000      0.001075      0.003259
     -0.00000      1.23691      4.10487         0.000000     -0.001075      0.003259
     -0.00000      5.03591      2.72838         0.000000     -0.001075     -0.003259
     -0.00000      6.36107      0.45063        -0.000000      0.001075     -0.003259
      2.21602      6.36107      1.82712        -0.000000      0.001075      0.003259
      2.21602      5.03591      4.10487         0.000000     -0.001075      0.003259
      2.21602      1.23691      2.72838         0.000000     -0.001075     -0.003259
      2.21602      2.56208      0.45063        -0.000000      0.001075     -0.003259
    total drift:                                0.000000      0.000000      0.000000

  FREE ENERGIE OF THE ION-ELECTRON SYSTEM (eV)
  free  energy   TOTEN  =       -21.70740219 eV

  energy  without entropy=      -21.66790734  energy(sigma->0) =      -21.69423724

 d Force = 0.9780904E-05[-0.231E-04, 0.426E-04]  d Energy = 0.3264118E-04-0.229E-04
 d Force =-0.3477225E+00[-0.348E+00,-0.347E+00]  d Ewald  =-0.3477225E+00 0.272E-07

 Conjugate gradient step on ions:
 trial-energy change:   -0.000033  1 .order   -0.000010   -0.000043    0.000023
  (g-gl).g = 0.936E-05      g.g   = 0.196E-04  gl.gl    = 0.205E-04
 g(Force)  = 0.196E-04   g(Stress)= 0.000E+00 ortho     = 0.140E-05
 gamma     =   0.45769
 trial     =   2.10863
 opt step  =   1.36840  (harmonic =   1.36840) maximal distance =0.00052677
 next E    =   -21.707383   (d E  =  -0.00001)

 reached required accuracy - stopping structural energy minimisation