 vasp.6.4.2 20Jul23 (build Nov 12 2023 22:16:35) complex
 executed on              LinuxNV date 2025.03.11  16:38:07
 OpenACC runtime initialized ...    4 GPUs detected

 INCAR:
   PREC = Normal
   ENCUT = 450
   NELM = 500
   IBRION = -1
   ISPIN = 1
   NSW = 0
   ISIF = 2
   EDIFF = 1E-5
   EDIFFG = -5E-3
   ISTART = 0
   ICHARG = 0
   ISMEAR = 0
   SIGMA = 0.05
   LWAVE = .T.
   LCHARG = .T.
   LREAL = Auto
   LPLANE = .TRUE.
   NPAR = 1
   KPAR = 4
   NCORE = 1
   ALGO = All
   LHFCALC = .TRUE.
   HSE06 = .TRUE.
   HFSCREEN = 0.18
   TIME = 0.4
   AEXX = 0.35
   LMAXFOCK = 4
   PRECFOCK = Fast
   NELECT = 1056

 POTCAR:    PAW_PBE Ga_d 06Jul2010
 POTCAR:     PAW_PBE O 08Apr2002
 POTCAR:    PAW_PBE P 06Sep2000
 POTCAR:    PAW_PBE Ga_d 06Jul2010
   VRHFIN =Ga: s2p1

   TITEL  = PAW_PBE Ga_d 06Jul2010
   POMASS =   69.723; ZVAL   =   13.000    mass and valenz
   ENMAX  =  282.691; ENMIN  =  212.018 eV

   TITEL  = PAW_PBE O 08Apr2002
   POMASS =   16.000; ZVAL   =    6.000    mass and valenz
   ENMAX  =  400.000; ENMIN  =  300.000 eV

   TITEL  = PAW_PBE P 06Sep2000
   POMASS =   30.974; ZVAL   =    5.000    mass and valenz
   ENMAX  =  255.040; ENMIN  =  191.280 eV

 Optimization of the real space projectors (new method)

 maximal supplied QI-value         = 16.25
 optimisation between [QCUT,QGAM] = [ 10.73, 21.61] = [ 32.22,130.83] Ry
 Optimized for a Real-space Cutoff    1.42 Angstroem

   l    n(q)    QCUT    max X(q) W(low)/X(q) W(high)/X(q)  e(spline)
   2      8    10.726     7.143    0.22E-03    0.16E-03    0.73E-07
   2      8    10.726     5.586    0.40E-03    0.26E-03    0.10E-06
   0      9    10.726    12.382    0.25E-04    0.21E-05    0.37E-07
   0      9    10.726     6.622    0.42E-04    0.48E-05    0.77E-07
   1      9    10.726     7.935    0.27E-03    0.13E-04    0.16E-06
   1      9    10.726     2.425    0.23E-03    0.15E-04    0.14E-06
 Optimization of the real space projectors (new method)

[...]

   l    n(q)    QCUT    max X(q) W(low)/X(q) W(high)/X(q)  e(spline)
   0      8    10.645    20.381    0.38E-03    0.60E-03    0.15E-06
   0      8    10.645    15.268    0.40E-03    0.65E-03    0.17E-06
   1      7    10.645     5.964    0.30E-03    0.63E-03    0.18E-06
   1      7    10.645     5.382    0.24E-03    0.53E-03    0.16E-06
 Optimization of the real space projectors (new method)

 maximal supplied QI-value         = 19.84
 optimisation between [QCUT,QGAM] = [ 10.71, 21.63] = [ 32.15,130.99] Ry
 Optimized for a Real-space Cutoff    1.19 Angstroem

   l    n(q)    QCUT    max X(q) W(low)/X(q) W(high)/X(q)  e(spline)
   0      8    10.715   160.924    0.37E-03    0.37E-04    0.63E-07
   0      8    10.715   130.086    0.37E-03    0.36E-04    0.63E-07
   1      7    10.715    74.434    0.19E-03    0.56E-03    0.65E-07
   1      7    10.715    49.120    0.19E-03    0.55E-03    0.63E-07
  PAW_PBE Ga_d 06Jul2010                :
   PAW_PBE O 08Apr2002                  :
  PAW_PBE P 06Sep2000                   :

 POSCAR: Ga48 O72
  positions in direct lattice
  velocities in cartesian coordinates
 exchange correlation table for  LEXCH =        8
   RHO(1)=    0.500       N(1)  =     2000
   RHO(2)=  100.500       N(2)  =     4000

 ion  position               nearest neighbor table
   1  0.660  0.000  0.156-  85 1.93  83 1.95  79 1.95  67 2.01  61 2.08  65 2.08
   2  0.656  0.000  0.655-  86 1.91  84 1.96  80 1.96  68 2.02  62 2.08  66 2.08
   3  0.661  0.333  0.157-  87 1.94  81 1.95  79 1.95  69 2.01  63 2.07  61 2.08
   4  0.654  0.333  0.656-  88 1.93  82 1.96  80 1.96  70 2.04  62 2.07  64 2.08
   5  0.661  0.667  0.157-  89 1.94  81 1.95  83 1.95  71 2.01  63 2.07  65 2.08
   6  0.654  0.667  0.656-  90 1.93  82 1.96  84 1.96  72 2.04  66 2.07  64 2.08
   7  0.839  0.168  0.343-  91 1.92  75 1.95  73 1.95  61 2.00  69 2.07  67 2.09
   8  0.838  0.167  0.842-  92 1.94  74 1.95  76 1.96  62 2.01  70 2.07  68 2.08
   9  0.843  0.500  0.343-  93 1.93  77 1.96  75 1.96  63 2.01  71 2.07  69 2.07
  10  0.838  0.500  0.842-  94 1.94  78 1.96  76 1.96  64 2.02  72 2.06  70 2.06
  11  0.839  0.832  0.343-  95 1.92  77 1.95  73 1.95  65 2.00  71 2.07  67 2.09
  12  0.838  0.833  0.842-  96 1.94  74 1.95  78 1.96  66 2.01  72 2.07  68 2.08
  13  0.590  0.167  0.397-  55 1.84  57 1.84  80 1.84  61 1.88
  14  0.590  0.167  0.898-  58 1.84  56 1.84  79 1.85  62 1.87
  15  0.595  0.500  0.398-  82 1.84  59 1.84  57 1.84  63 1.86
  16  0.595  0.500  0.901-  58 1.83  60 1.83  81 1.83  64 1.86
  17  0.590  0.833  0.397-  55 1.84  59 1.84  84 1.84  65 1.88
  18  0.590  0.833  0.898-  60 1.84  56 1.84  83 1.85  66 1.87
  19  0.908  0.000  0.101-  74 1.84  53 1.85  49 1.85  67 1.87
  20  0.908  0.000  0.602-  73 1.84  50 1.84  54 1.84  68 1.88
  21  0.908  0.333  0.102-  76 1.84  49 1.85  51 1.85  69 1.87
  22  0.906  0.334  0.602-  75 1.84  50 1.84  52 1.85  70 1.87
  23  0.908  0.667  0.102-  78 1.84  53 1.85  51 1.85  71 1.87
  24  0.906  0.666  0.602-  77 1.84  54 1.84  52 1.85  72 1.87
  25  0.160  0.167  0.154- 116 1.94 115 1.95  49 1.96  97 2.02 103 2.02  99 2.10
  26  0.157  0.173  0.662-  50 1.96 117 1.99 100 2.01  98 2.14 104 2.16 120 2.26
  27  0.157  0.500  0.158-  51 1.94 116 1.96 118 1.96 105 2.04 101 2.07  99 2.07
  28  0.158  0.500  0.658- 117 1.91 119 1.91  52 1.96 106 2.04 102 2.07 100 2.07
  29  0.160  0.833  0.154- 118 1.94 115 1.95  53 1.96  97 2.02 107 2.02 101 2.10
  30  0.157  0.827  0.662-  54 1.96 119 1.99 102 2.01  98 2.14 108 2.16 120 2.26
  31  0.342  0.000  0.341- 109 1.94 113 1.94  55 1.95  97 2.05 103 2.09 107 2.09
  32  0.340  0.000  0.848-  56 1.96 110 1.96 114 1.96  98 2.00 104 2.07 108 2.07
  33  0.343  0.336  0.341- 109 1.89 111 1.95  57 1.95  99 2.05 105 2.05 103 2.09
  34  0.344  0.334  0.847- 112 1.94  58 1.95 104 1.95 110 1.96 106 2.07 100 2.08
  35  0.343  0.664  0.341- 113 1.89 111 1.95  59 1.95 101 2.05 105 2.05 107 2.09
  36  0.344  0.666  0.847- 112 1.94  60 1.95 108 1.95 114 1.96 106 2.07 102 2.08
  37  0.084  0.000  0.383-  91 1.85  95 1.85  97 1.88 120 2.19
  38  0.087  0.000  0.898- 115 1.82  98 1.84  92 1.85  96 1.85
  39  0.092  0.333  0.399- 117 1.83  91 1.86  93 1.86  99 1.88
  40  0.088  0.333  0.898- 116 1.84  92 1.85  94 1.85 100 1.87
  41  0.092  0.667  0.399- 119 1.83  95 1.86  93 1.86 101 1.88
  42  0.088  0.667  0.898- 118 1.84  96 1.85  94 1.85 102 1.87
  43  0.412  0.167  0.104- 110 1.82  85 1.84  87 1.85 103 1.86
  44  0.402  0.162  0.603- 109 1.86  86 1.86 104 1.88  88 1.89 120 2.70
  45  0.411  0.500  0.103- 112 1.84  89 1.84  87 1.84 105 1.87
  46  0.408  0.500  0.603- 111 1.85  90 1.85  88 1.85 106 1.88
  47  0.412  0.833  0.104- 114 1.82  85 1.84  89 1.85 107 1.86
  48  0.402  0.838  0.603- 113 1.86  86 1.86 108 1.88  90 1.89 120 2.70
  49  0.996  0.166  0.124-  21 1.85  19 1.85  25 1.96
  50  0.993  0.168  0.628-  20 1.84  22 1.84  26 1.96
  51  0.995  0.500  0.127-  21 1.85  23 1.85  27 1.94
  52  0.994  0.500  0.628-  22 1.85  24 1.85  28 1.96
  53  0.996  0.834  0.124-  23 1.85  19 1.85  29 1.96
  54  0.993  0.832  0.628-  20 1.84  24 1.84  30 1.96
  55  0.505  0.000  0.369-  13 1.84  17 1.84  31 1.95
  56  0.504  0.000  0.878-  14 1.84  18 1.84  32 1.96
  57  0.506  0.336  0.369-  15 1.84  13 1.84  33 1.95
  58  0.507  0.336  0.879-  16 1.83  14 1.84  34 1.95
  59  0.506  0.664  0.369-  15 1.84  17 1.84  35 1.95
  60  0.507  0.664  0.879-  16 1.83  18 1.84  36 1.95
[...]
 106  0.328  0.500  0.722-  46 1.88  28 2.04  36 2.07  34 2.07
 107  0.328  0.832  0.217-  47 1.86  29 2.02  35 2.09  31 2.09
 108  0.337  0.825  0.734-  48 1.88  36 1.95  32 2.07  30 2.16
 109  0.343  0.172  0.440-  44 1.86  33 1.89  31 1.94
 110  0.332  0.168  0.950-  43 1.82  32 1.96  34 1.96
 111  0.334  0.500  0.445-  46 1.85  35 1.95  33 1.95
 112  0.332  0.500  0.948-  45 1.84  36 1.94  34 1.94
 113  0.343  0.828  0.440-  48 1.86  35 1.89  31 1.94
 114  0.332  0.832  0.950-  47 1.82  32 1.96  36 1.96
 115  0.167  0.000  0.052-  38 1.82  29 1.95  25 1.95
 116  0.165  0.335  0.054-  40 1.84  25 1.94  27 1.96
 117  0.167  0.340  0.555-  39 1.83  28 1.91  26 1.99
 118  0.165  0.665  0.054-  42 1.84  29 1.94  27 1.96
 119  0.167  0.660  0.555-  41 1.83  28 1.91  30 1.99
 120  0.212  0.000  0.549-  37 2.19  30 2.26  26 2.26  44 2.70  48 2.70

  LATTYP: Found a simple monoclinic cell.
 ALAT       =    11.6348202465
 B/A-ratio  =     0.7858051831
 C/A-ratio  =     1.0554931797
 COS(beta)  =    -0.2379290539

  Lattice vectors:

 A1 = (   0.0000000000,  -2.7682617730, -11.3006977184)
 A2 = (  -9.1427020537,   0.0000000000,   0.0000000000)
 A3 = (   0.0000000000,  12.2804734172,   0.0000000000)

Analysis of symmetry for initial positions (statically):
 Subroutine PRICEL returns:
 Original cell was already a primitive cell.

 Routine SETGRP: Setting up the symmetry group for a
 simple monoclinic supercell.

 Subroutine GETGRP returns: Found  2 space group operations
 (whereof  2 operations were pure point group operations)
 out of a pool of  4 trial point group operations.

The static configuration has the point symmetry C_1h.

Analysis of symmetry for dynamics (positions and initial velocities):
 Subroutine PRICEL returns:
 Original cell was already a primitive cell.

 Routine SETGRP: Setting up the symmetry group for a
 simple monoclinic supercell.

 Subroutine GETGRP returns: Found  2 space group operations
 (whereof  2 operations were pure point group operations)
 out of a pool of  4 trial point group operations.

The dynamic configuration has the point symmetry C_1h.

 Subroutine INISYM returns: Found  2 space group operations
 (whereof  2 operations are pure point group operations),
 and found     1 'primitive' translations

                                     Primitive cell

  volume of cell :    1268.8052

  direct lattice vectors                    reciprocal lattice vectors
     0.000000000 12.280473417  0.000000000     0.000000000  0.081430085 -0.019947423
     9.142702054  0.000000000  0.000000000     0.109376855 -0.000000000  0.000000000
     0.000000000 -2.768261773-11.300697718     0.000000000  0.000000000 -0.088490111

  length of vectors
    12.280473417  9.142702054 11.634820246     0.083837691  0.109376855  0.088490111

  position of ions in fractional coordinates (direct lattice)
     0.660496386  0.000000000  0.156393290
     0.656437365  0.000000000  0.655422430
     0.660672742  0.333415916  0.156890499
     0.654374691  0.332560979  0.656099379
     0.660672742  0.666584084  0.156890499
     0.654374691  0.667439021  0.656099379
     0.839251893  0.167500516  0.343191120
     0.837905363  0.167121626  0.842086998
     0.842543041  0.500000000  0.342622162
     0.838372996  0.500000000  0.841820810
     0.839251893  0.832499484  0.343191120
     0.837905363  0.832878374  0.842086998
     0.590158852  0.167238068  0.397393936
     0.590249507  0.166664925  0.898196562
     0.594783734  0.500000000  0.397663736
     0.594732720  0.500000000  0.900520815
     0.590158852  0.832761932  0.397393936
     0.590249507  0.833335075  0.898196562
     0.907683759  0.000000000  0.100564639
     0.907549562  0.000000000  0.602263265
     0.908099279  0.332806109  0.101590253
     0.905677098  0.334046340  0.602297572
[...]
     52     -17.3115      2.00000
     53     -17.2914      2.00000
     54     -17.2883      2.00000
     55     -17.2878      2.00000
     56     -17.2699      2.00000
     57     -17.2642      2.00000
     58     -17.2588      2.00000
     59     -17.2495      2.00000
     60     -17.2125      2.00000
[...]
    619      16.1389      0.00000
    620      16.2155      0.00000
    621      16.3728      0.00000
    622      16.5424      0.00000
    623      16.6030      0.00000
    624      16.7018      0.00000
    625      16.7818      0.00000
    626      16.8370      0.00000
    627      16.9576      0.00000
    628      17.0148      0.00000
    629      17.0805      0.00000
    630      17.1949      0.00000
    631      17.2941      0.00000
    632      17.4346      0.00000
    633      17.8165      0.00000

 soft charge-density along one line, spin component            1
         0         1         2         3         4         5         6         7         8         9
 total charge-density along one line

------------------------ aborting loop because EDIFF is reached ----------------------------------------

  FORCE on cell =-STRESS in cart. coord.  units (eV):
  Direction    XX          YY          ZZ          XY          YZ          ZX
  Alpha Z  5529.70323  5529.70323  5529.70323
  Ewald  -24951.74985-32225.42652-31507.48468     0.00000 -1546.17907    -0.00000
  Hartree 14206.56327  9652.23108 10075.73242     0.00003 -1065.78211    -0.00002
  E(xc)   -3923.54684 -3926.41141 -3925.83250     0.00000    -0.33433     0.00000
  Local   -6187.40875  5484.49302  4307.51120    -0.00004  2579.77699     0.00004
  n-local  6864.06169  6802.41752  6824.08369    -0.00000    -5.14669    -0.00000
  augment  5413.68607  5435.82718  5443.84403     0.00001     5.79313    -0.00000
  Kinetic 12365.89933 12571.42485 12587.17645    -0.00001    34.73004    -0.00003
  Fock    -9341.61969 -9346.76903 -9342.08004    -0.00000     0.08011    -0.00000
  Total     -24.41154   -22.51008    -7.34619     0.00000     2.93808     0.00000
  in kB     -30.82555   -28.42449    -9.27636     0.00000     3.71004     0.00000

 VOLUME and BASIS-vectors are now :
  energy-cutoff  :      450.00
  volume of cell :     1268.81
      direct lattice vectors                 reciprocal lattice vectors
     0.000000000 12.280473417  0.000000000     0.000000000  0.081430085 -0.019947423
     9.142702054  0.000000000  0.000000000     0.109376855 -0.000000000  0.000000000
     0.000000000 -2.768261773-11.300697718     0.000000000  0.000000000 -0.088490111

  length of vectors
    12.280473417  9.142702054 11.634820246     0.083837691  0.109376855  0.088490111

 FORCES acting on ions:
    Electron-Ion                     Ewald-Force                    Non-Local-Force
   0.434E-04 0.361E+02 -.706E+02   0.349E-11 -.356E+02 0.752E+02   0.000E+00 -.416E+00 -.442E+01
   0.630E-04 0.411E+02 -.974E+02   0.107E-11 -.426E+02 0.102E+03   0.000E+00 0.143E+01 -.453E+01
   0.933E+01 0.466E+02 -.744E+02   -.903E+01 -.457E+02 0.787E+02   -.266E+00 -.790E+00 -.409E+01
   0.372E+01 0.573E+02 -.958E+02   -.389E+01 -.579E+02 0.100E+03   0.139E+00 0.685E+00 -.435E+01
   -.933E+01 0.466E+02 -.744E+02   0.903E+01 -.457E+02 0.787E+02   0.266E+00 -.790E+00 -.409E+01
   -.372E+01 0.573E+02 -.958E+02   0.389E+01 -.579E+02 0.100E+03   -.139E+00 0.685E+00 -.435E+01
   0.188E+02 -.778E+02 0.142E+03   -.185E+02 0.781E+02 -.146E+03   -.312E+00 -.342E+00 0.385E+01
   0.767E+01 -.629E+02 0.622E+02   -.750E+01 0.623E+02 -.663E+02   -.157E+00 0.461E+00 0.392E+01
   0.242E-04 -.856E+02 0.119E+03   -.277E-11 0.853E+02 -.123E+03   0.000E+00 0.198E+00 0.391E+01
   0.403E-04 -.654E+02 0.669E+02   -.270E-11 0.648E+02 -.708E+02   0.000E+00 0.441E+00 0.375E+01
   -.188E+02 -.778E+02 0.142E+03   0.185E+02 0.781E+02 -.146E+03   0.312E+00 -.342E+00 0.385E+01
   -.767E+01 -.629E+02 0.622E+02   0.750E+01 0.623E+02 -.663E+02   0.157E+00 0.461E+00 0.392E+01
   0.821E+01 -.381E+02 0.638E+02   -.821E+01 0.356E+02 -.652E+02   -.175E-02 0.221E+01 0.138E+01
   0.972E+01 -.400E+02 -.719E+01   -.958E+01 0.373E+02 0.536E+01   -.125E+00 0.232E+01 0.171E+01
   0.114E-05 -.399E+02 0.692E+02   -.778E-12 0.365E+02 -.700E+02   0.000E+00 0.300E+01 0.782E+00
   -.783E-04 -.409E+02 -.527E+01   -.151E-11 0.375E+02 0.366E+01   0.000E+00 0.302E+01 0.149E+01
   -.821E+01 -.381E+02 0.638E+02   0.821E+01 0.356E+02 -.652E+02   0.175E-02 0.221E+01 0.138E+01
   -.972E+01 -.400E+02 -.719E+01   0.958E+01 0.373E+02 0.536E+01   0.125E+00 0.232E+01 0.171E+01
   -.357E-04 0.291E+02 -.151E+02   0.261E-10 -.268E+02 0.168E+02   0.000E+00 -.197E+01 -.163E+01
   0.899E-04 -.542E+02 -.482E+02   -.253E-10 0.563E+02 0.498E+02   0.000E+00 -.184E+01 -.161E+01
   0.392E+01 0.154E+02 -.149E+02   -.394E+01 -.133E+02 0.163E+02   0.371E-01 -.178E+01 -.138E+01
   0.231E+02 0.287E+01 -.419E+02   -.233E+02 -.432E+00 0.433E+02   0.153E+00 -.216E+01 -.135E+01
   -.392E+01 0.154E+02 -.149E+02   0.394E+01 -.133E+02 0.163E+02   -.371E-01 -.178E+01 -.138E+01
   -.231E+02 0.287E+01 -.419E+02   0.233E+02 -.432E+00 0.433E+02   -.153E+00 -.216E+01 -.135E+01
   -.230E+02 0.424E+02 -.564E+02   0.214E+02 -.413E+02 0.602E+02   0.147E+01 -.898E+00 -.363E+01
   0.166E+03 0.255E+02 -.199E+03   -.173E+03 -.212E+02 0.210E+03   0.692E+01 -.412E+01 -.108E+02
   0.252E-04 0.442E+02 -.565E+02   -.185E-11 -.444E+02 0.608E+02   0.000E+00 0.333E+00 -.404E+01
   0.660E-04 0.462E+02 -.874E+02   -.515E-11 -.441E+02 0.950E+02   0.000E+00 -.175E+01 -.705E+01
   0.230E+02 0.424E+02 -.564E+02   -.214E+02 -.413E+02 0.602E+02   -.147E+01 -.898E+00 -.363E+01
   -.166E+03 0.255E+02 -.199E+03   0.173E+03 -.212E+02 0.210E+03   -.692E+01 -.412E+01 -.108E+02
   0.221E-04 0.397E+02 0.124E+03   0.759E-12 -.387E+02 -.129E+03   0.000E+00 -.969E+00 0.492E+01
   -.150E-04 0.824E+01 0.734E+01   0.828E-12 -.951E+01 -.110E+02   0.000E+00 0.109E+01 0.351E+01
   0.982E+00 0.539E+01 0.101E+03   -.328E+01 -.568E+01 -.108E+03   0.203E+01 0.182E+00 0.654E+01
   -.157E+02 0.224E+01 0.537E+02   0.126E+02 -.489E+00 -.552E+02   0.277E+01 -.170E+01 0.158E+01
   -.982E+00 0.539E+01 0.101E+03   0.328E+01 -.568E+01 -.108E+03   -.203E+01 0.182E+00 0.654E+01
   0.157E+02 0.224E+01 0.537E+02   -.126E+02 -.489E+00 -.552E+02   -.277E+01 -.170E+01 0.158E+01
   0.342E-05 -.659E+02 0.258E+03   0.348E-11 0.726E+02 -.269E+03   0.000E+00 -.639E+01 0.103E+02
   -.160E-04 -.412E+02 -.265E+02   0.326E-11 0.436E+02 0.248E+02   0.000E+00 -.215E+01 0.156E+01
   0.582E+02 -.702E+02 0.858E+02   -.571E+02 0.681E+02 -.877E+02   -.984E+00 0.181E+01 0.177E+01
   0.569E+01 -.628E+02 0.614E+01   -.548E+01 0.610E+02 -.794E+01   -.174E+00 0.168E+01 0.168E+01
   -.582E+02 -.702E+02 0.858E+02   0.571E+02 0.681E+02 -.877E+02   0.984E+00 0.181E+01 0.177E+01
   -.569E+01 -.628E+02 0.614E+01   0.548E+01 0.610E+02 -.794E+01   0.174E+00 0.168E+01 0.168E+01
   0.273E+01 0.558E+02 -.241E+02   -.261E+01 -.561E+02 0.271E+02   -.921E-01 0.319E+00 -.277E+01
   0.110E+01 0.125E+03 -.594E+02   -.222E+01 -.122E+03 0.602E+02   0.936E+00 -.289E+01 -.665E+00
   -.198E-04 0.738E+02 -.306E+02   -.649E-12 -.717E+02 0.326E+02   0.000E+00 -.179E+01 -.188E+01
   -.300E-04 0.743E+02 -.440E+02   -.741E-12 -.714E+02 0.454E+02   0.000E+00 -.255E+01 -.130E+01
   -.273E+01 0.558E+02 -.241E+02   0.261E+01 -.561E+02 0.271E+02   0.921E-01 0.319E+00 -.277E+01
   -.110E+01 0.125E+03 -.594E+02   0.222E+01 -.122E+03 0.602E+02   -.936E+00 -.289E+01 -.665E+00
   -.231E+01 -.299E+02 0.228E+02   0.224E+01 0.383E+02 -.264E+02   0.613E-01 -.707E+01 0.299E+01
   0.312E+02 -.689E+02 -.895E+01   -.314E+02 0.773E+02 0.559E+01   0.194E+00 -.711E+01 0.283E+01
   0.244E-04 -.261E+02 0.236E+02   0.255E-10 0.332E+02 -.273E+02   0.000E+00 -.602E+01 0.309E+01
   0.368E-04 -.379E+02 0.932E+01   -.577E-11 0.463E+02 -.134E+02   0.000E+00 -.712E+01 0.348E+01
   0.231E+01 -.299E+02 0.228E+02   -.224E+01 0.383E+02 -.264E+02   -.613E-01 -.707E+01 0.299E+01
   -.312E+02 -.689E+02 -.895E+01   0.314E+02 0.773E+02 0.559E+01   -.194E+00 -.711E+01 0.283E+01
   0.156E-04 0.262E+02 -.659E+01   0.173E-12 -.341E+02 0.113E+02   0.000E+00 0.672E+01 -.402E+01
   0.111E-04 0.308E+02 -.281E+02   0.429E-12 -.396E+02 0.314E+02   0.000E+00 0.748E+01 -.282E+01
   -.178E+01 0.298E+02 -.698E+01   0.195E+01 -.378E+02 0.118E+02   -.146E+00 0.674E+01 -.407E+01
   -.275E+01 0.287E+02 -.259E+02   0.286E+01 -.371E+02 0.290E+02   -.940E-01 0.714E+01 -.259E+01
   0.178E+01 0.298E+02 -.698E+01   -.195E+01 -.378E+02 0.118E+02   0.146E+00 0.674E+01 -.407E+01
   0.275E+01 0.287E+02 -.259E+02   -.286E+01 -.371E+02 0.290E+02   0.940E-01 0.714E+01 -.259E+01
[...]
   0.109E+01 -.419E+02 -.251E+02   -.130E+01 0.390E+02 0.196E+02   0.176E+00 0.253E+01 0.468E+01
   -.246E+02 -.342E+02 -.761E+02   0.264E+02 0.317E+02 0.747E+02   -.162E+01 0.215E+01 0.115E+01
   0.780E+01 0.123E+03 0.858E+02   -.870E+01 -.131E+03 -.851E+02   0.822E+00 0.677E+01 -.556E+00
   -.751E+00 0.142E+03 0.390E+02   0.101E+01 -.156E+03 -.340E+02   -.221E+00 0.115E+02 -.423E+01
   0.818E-05 0.135E+03 0.795E+02   -.331E-12 -.147E+03 -.769E+02   0.000E+00 0.104E+02 -.219E+01
   0.125E-04 0.144E+03 0.517E+02   -.397E-12 -.158E+03 -.483E+02   0.000E+00 0.118E+02 -.289E+01
   -.780E+01 0.123E+03 0.858E+02   0.870E+01 -.131E+03 -.851E+02   -.822E+00 0.677E+01 -.556E+00
   0.751E+00 0.142E+03 0.390E+02   -.101E+01 -.156E+03 -.340E+02   0.221E+00 0.115E+02 -.423E+01
   -.977E-05 -.127E+03 -.625E+02   0.155E-11 0.141E+03 0.583E+02   0.000E+00 -.114E+02 0.351E+01
   -.756E+01 -.122E+03 -.625E+02   0.839E+01 0.135E+03 0.590E+02   -.706E+00 -.108E+02 0.300E+01
   0.468E+02 -.121E+03 -.704E+02   -.492E+02 0.134E+03 0.666E+02   0.211E+01 -.108E+02 0.322E+01
   0.756E+01 -.122E+03 -.625E+02   -.839E+01 0.135E+03 0.590E+02   0.706E+00 -.108E+02 0.300E+01
   -.468E+02 -.121E+03 -.704E+02   0.492E+02 0.134E+03 0.666E+02   -.211E+01 -.108E+02 0.322E+01
   0.331E-04 -.259E+02 -.590E+02   0.476E-12 0.267E+02 0.571E+02   0.000E+00 -.929E+00 0.174E+01
   0.439E-04 0.164E+02 0.158E+02   0.469E-12 0.244E-11 0.405E-12   -.444E-15 -.160E+02 -.138E+02

 POSITION                                       TOTAL-FORCE (eV/Angst)
      0.00000      7.67827     -1.76735        -0.000000      0.066187      0.011661
      0.00000      6.24698     -7.40673        -0.000000      0.021041      0.019438
      3.04832      7.67906     -1.77297         0.008702      0.080822      0.002098
      3.04051      6.21978     -7.41438        -0.009078      0.049772      0.012094
      6.09438      7.67906     -1.77297        -0.008702      0.080822      0.002098
      6.10220      6.21978     -7.41438         0.009078      0.049772      0.012094
      1.53141      9.35637     -3.87830         0.010100     -0.040496      0.010265
      1.52794      7.95876     -9.51617         0.001845     -0.079942     -0.004676
      4.57135      9.39836     -3.87187        -0.000000     -0.076442      0.005306
      4.57135      7.96524     -9.51316        -0.000000     -0.075845     -0.003712
      7.61129      9.35637     -3.87830        -0.010100     -0.040496      0.010265
      7.61476      7.95876     -9.51617        -0.001845     -0.079942     -0.004676
      1.52901      6.14734     -4.49083        -0.009650     -0.047042      0.032531
      1.52377      4.76210    -10.15025         0.001420     -0.049828      0.008782
      4.57135      6.20339     -4.49388        -0.000000     -0.083768      0.052816
      4.57135      4.81072    -10.17651        -0.000000     -0.077872      0.013155
      7.61369      6.14734     -4.49083         0.009650     -0.047042      0.032531
      7.61893      4.76210    -10.15025        -0.001420     -0.049828      0.008782
      0.00000     10.86840     -1.13645        -0.000000      0.028499     -0.007360
      0.00000      9.47792     -6.80600        -0.000000      0.025010     -0.011760
      3.04275     10.87066     -1.14804         0.008011      0.024615     -0.026197
      3.05409      9.45483     -6.80638        -0.006868      0.038001     -0.022307
      6.09995     10.87066     -1.14804        -0.008011      0.024615     -0.026197
      6.08862      9.45483     -6.80638         0.006868      0.038001     -0.022307
      1.52245      1.53473     -1.73960        -0.044533      0.097997     -0.020369
      1.58121      0.09899     -7.48428         0.223587     -0.001300     -0.074363
      4.57135      1.49322     -1.78632        -0.000000      0.077782      0.021890
      4.57135      0.11835     -7.43832        -0.000000      0.118746      0.086286
      7.62025      1.53473     -1.73960         0.044533      0.097997     -0.020369
      7.56149      0.09899     -7.48428        -0.223587     -0.001300     -0.074363
      0.00000      3.25086     -3.85234        -0.000000     -0.020197     -0.079558
      0.00000      1.82922     -9.58378        -0.000000     -0.073799      0.006874
      3.07123      3.26964     -3.85573        -0.077176     -0.051655     -0.095937
      3.05579      1.87814     -9.56792        -0.096634     -0.008931      0.060689
      6.07147      3.26964     -3.85573         0.077176     -0.051655     -0.095937
      6.08691      1.87814     -9.56792         0.096634     -0.008931      0.060689
      0.00000     -0.02803     -4.32517        -0.000000     -0.026131      0.294587
      0.00000     -1.41609    -10.14935        -0.000000      0.078499      0.011756
      3.04092      0.02256     -4.50864         0.017690     -0.021286      0.026070
      3.04716     -1.40315    -10.14580         0.015786      0.001330      0.004859
      6.10179      0.02256     -4.50864        -0.017690     -0.021286      0.026070
      6.09554     -1.40315    -10.14580        -0.015786      0.001330      0.004859
      1.52511      4.77084     -1.17429         0.007847     -0.038235      0.011702
      1.47828      3.26209     -6.81350        -0.024124      0.087382      0.000208
      4.57135      4.75964     -1.16377        -0.000000      0.002685     -0.002785
      4.57135      3.33597     -6.81565        -0.000000      0.015881     -0.004295
      7.61759      4.77084     -1.17429        -0.007847     -0.038235      0.011702
      7.66443      3.26209     -6.81350         0.024124      0.087382      0.000208
      1.52093     11.88241     -1.40534         0.000430     -0.223714      0.123315
      1.53450     10.46006     -7.09144         0.024511     -0.237747      0.099674
      4.57135     11.86665     -1.43004        -0.000000     -0.185832      0.126305
      4.57135     10.46425     -7.10185        -0.000000     -0.233489      0.133511
      7.62177     11.88241     -1.40534        -0.000430     -0.223714      0.123315
      7.60821     10.46006     -7.09144        -0.024511     -0.237747      0.099674
      0.00000      5.17739     -4.17112        -0.000000      0.227622     -0.148088
      0.00000      3.75995     -9.91881        -0.000000      0.237645     -0.116813
      3.06993      5.19477     -4.17160        -0.005574      0.220815     -0.152261
      3.06849      3.79100     -9.93110        -0.007210      0.226313     -0.106583
      6.07278      5.19477     -4.17160         0.005574      0.220815     -0.152261
      6.07421      3.79100     -9.93110         0.007210      0.226313     -0.106583
[...]
      4.57135      2.02336     -8.16089        -0.000000      0.052776      0.096880
      7.60603      3.42401     -2.45155         0.009242      0.079904      0.162897
      7.54428      2.10225     -8.29336        -0.066988      0.050453      0.027925
      1.56870      2.99935     -4.97296         0.052106      0.304413      0.012923
      1.54042      1.44713    -10.73989        -0.014513      0.465901     -0.137054
      4.57135      2.86695     -5.02769        -0.000000      0.420746     -0.040744
      4.57135      1.44938    -10.70850        -0.000000      0.480145     -0.080148
      7.57400      2.99935     -4.97296        -0.052106      0.304413      0.012923
      7.60228      1.44713    -10.73989         0.014513      0.465901     -0.137054
      0.00000      1.90614     -0.58275        -0.000000     -0.460980      0.111409
      3.06136      1.88249     -0.60712        -0.035837     -0.440247      0.082170
      3.10563      0.51953     -6.27347         0.084359     -0.444391      0.068949
      6.08134      1.88249     -0.60712         0.035837     -0.440247      0.082170
      6.03707      0.51953     -6.27347        -0.084359     -0.444391      0.068949
      0.00000      1.08177     -6.20927        -0.000000     -0.373821     -0.105929
    total drift:                                0.000044      0.028449     -0.058274

  FREE ENERGIE OF THE ION-ELECTRON SYSTEM (eV)
  free  energy   TOTEN  =      -976.61509640 eV

  energy  without entropy=     -976.61509640  energy(sigma->0) =     -976.61509640

 writing wavefunctions