 vasp.6.4.2 20Jul23 (build Nov 20 2024 16:57:20) complex

 executed on             LinuxIFC date 2025.03.03  10:14:48

 INCAR:
   PREC = Normal
   ENCUT = 450
   IBRION = -1
   ISPIN = 1
   NSW = 0
   ISIF = 3
   EDIFF = 1E-5
   EDIFFG = -5E-3
   ALGO = Fast
   ISTART = 0
   ICHARG = 2
   ISMEAR = 0
   SIGMA = 0.05
   LWAVE = .T.
   LCHARG = .T.
   LREAL = .F.
   LPLANE = .TRUE.
   NPAR = 8

 POTCAR:    PAW_PBE Ga 08Apr2002
 POTCAR:    PAW_PBE O 08Apr2002
 POTCAR:    PAW_PBE Ga 08Apr2002
   VRHFIN =Ga: s2p1

   TITEL  = PAW_PBE Ga 08Apr2002
   POMASS =   69.723; ZVAL   =    3.000    mass and valenz
   ENMAX  =  134.678; ENMIN  =  101.009 eV

   TITEL  = PAW_PBE O 08Apr2002
   POMASS =   16.000; ZVAL   =    6.000    mass and valenz
   ENMAX  =  400.000; ENMIN  =  300.000 eV

  PAW_PBE Ga 08Apr2002                  :
  PAW_PBE O 08Apr2002                   :

 POSCAR: Ga48 O72
  positions in direct lattice
  velocities in cartesian coordinates
 exchange correlation table for  LEXCH =        8
   RHO(1)=    0.500       N(1)  =     2000
   RHO(2)=  100.500       N(2)  =     4000

 ion  position               nearest neighbor table
   1  0.659  0.000  0.158-  85 1.97  83 1.98  79 1.98  67 2.04  61 2.09  65 2.09   3 3.09   5 3.09
                             7 3.14  11 3.14  19 3.33  18 3.36  14 3.36
   2  0.659  0.000  0.658-  86 1.97  84 1.98  80 1.98  68 2.04  62 2.09  66 2.09   4 3.09   6 3.09
                             8 3.14  12 3.14  20 3.33  17 3.36  13 3.36
   3  0.659  0.333  0.158-  87 1.97  81 1.98  79 1.98  69 2.04  63 2.09  61 2.09   5 3.09   1 3.09
                             9 3.14   7 3.14  21 3.33  16 3.36  14 3.36
   4  0.659  0.333  0.658-  88 1.97  82 1.98  80 1.98  70 2.04  64 2.09  62 2.09   6 3.09   2 3.09
                            10 3.14   8 3.14  22 3.33  15 3.36  13 3.36
   5  0.659  0.667  0.158-  89 1.97  81 1.98  83 1.98  71 2.04  63 2.09  65 2.09   3 3.09   1 3.09
                             9 3.14  11 3.14  23 3.33  16 3.36  18 3.36
   6  0.659  0.667  0.658-  90 1.97  82 1.98  84 1.98  72 2.04  64 2.09  66 2.09   4 3.09   2 3.09
                            10 3.14  12 3.14  24 3.33  15 3.36  17 3.36
   7  0.841  0.167  0.342-  91 1.97  73 1.98  75 1.98  61 2.04  67 2.09  69 2.09  11 3.09   9 3.09
                             1 3.14   3 3.14  13 3.33  20 3.36  22 3.36
   8  0.841  0.167  0.842-  92 1.97  74 1.98  76 1.98  62 2.04  68 2.09  70 2.09  12 3.09  10 3.09
                             2 3.14   4 3.14  14 3.33  19 3.36  21 3.36
   9  0.841  0.500  0.342-  93 1.97  77 1.98  75 1.98  63 2.04  71 2.09  69 2.09   7 3.09  11 3.09
                             3 3.14   5 3.14  15 3.33  22 3.36  24 3.36
  10  0.841  0.500  0.842-  94 1.97  78 1.98  76 1.98  64 2.04  72 2.09  70 2.09   8 3.09  12 3.09
                             4 3.14   6 3.14  16 3.33  21 3.36  23 3.36
  11  0.841  0.833  0.342-  95 1.97  73 1.98  77 1.98  65 2.04  67 2.09  71 2.09   7 3.09   9 3.09
                             1 3.14   5 3.14  17 3.33  20 3.36  24 3.36
  12  0.841  0.833  0.842-  96 1.97  74 1.98  78 1.98  66 2.04  68 2.09  72 2.09   8 3.09  10 3.09
                             2 3.14   6 3.14  18 3.33  19 3.36  23 3.36
  13  0.591  0.167  0.398-  80 1.87  55 1.88  57 1.88  61 1.91  17 3.09  15 3.09   7 3.33   2 3.36
                             4 3.36
  14  0.591  0.167  0.898-  79 1.87  56 1.88  58 1.88  62 1.91  18 3.09  16 3.09   8 3.33   1 3.36
                             3 3.36
  15  0.591  0.500  0.398-  82 1.87  59 1.88  57 1.88  63 1.91  13 3.09  17 3.09   9 3.33   6 3.36
                             4 3.36
  16  0.591  0.500  0.898-  81 1.87  60 1.88  58 1.88  64 1.91  14 3.09  18 3.09  10 3.33   5 3.36
                             3 3.36
  17  0.591  0.833  0.398-  84 1.87  55 1.88  59 1.88  65 1.91  13 3.09  15 3.09  11 3.33   2 3.36
                             6 3.36
  18  0.591  0.833  0.898-  83 1.87  56 1.88  60 1.88  66 1.91  14 3.09  16 3.09  12 3.33   1 3.36
                             5 3.36
  19  0.909  0.000  0.102-  74 1.87  53 1.88  49 1.88  67 1.91  21 3.09  23 3.09   1 3.33   8 3.36
                            12 3.36
  20  0.909  0.000  0.602-  73 1.87  54 1.88  50 1.88  68 1.91  22 3.09  24 3.09   2 3.33   7 3.36
                            11 3.36
  21  0.909  0.333  0.102-  76 1.87  51 1.88  49 1.88  69 1.91  23 3.09  19 3.09   3 3.33  10 3.36
                             8 3.36
  22  0.909  0.333  0.602-  75 1.87  52 1.88  50 1.88  70 1.91  24 3.09  20 3.09   4 3.33   9 3.36
                             7 3.36
  23  0.909  0.667  0.102-  78 1.87  51 1.88  53 1.88  71 1.91  21 3.09  19 3.09   5 3.33  10 3.36
                            12 3.36
  24  0.909  0.667  0.602-  77 1.87  52 1.88  54 1.88  72 1.91  22 3.09  20 3.09   6 3.33   9 3.36
                            11 3.36
  25  0.159  0.167  0.158-  49 1.97 115 1.98 117 1.98 103 2.04  97 2.09  99 2.09  29 3.09  27 3.09
                            31 3.14  33 3.14  43 3.33  38 3.36  40 3.36
  26  0.159  0.167  0.658-  50 1.97 116 1.98 118 1.98 104 2.04  98 2.09 100 2.09  30 3.09  28 3.09
                            32 3.14  34 3.14  44 3.33  37 3.36  39 3.36
  27  0.159  0.500  0.158-  51 1.97 117 1.98 119 1.98 105 2.04 101 2.09  99 2.09  25 3.09  29 3.09
                            33 3.14  35 3.14  45 3.33  42 3.36  40 3.36
  28  0.159  0.500  0.658-  52 1.97 118 1.98 120 1.98 106 2.04 102 2.09 100 2.09  26 3.09  30 3.09
                            34 3.14  36 3.14  46 3.33  41 3.36  39 3.36
  29  0.159  0.833  0.158-  53 1.97 115 1.98 119 1.98 107 2.04  97 2.09 101 2.09  25 3.09  27 3.09
                            31 3.14  35 3.14  47 3.33  38 3.36  42 3.36
  30  0.159  0.833  0.658-  54 1.97 116 1.98 120 1.98 108 2.04  98 2.09 102 2.09  26 3.09  28 3.09
                            32 3.14  36 3.14  48 3.33  37 3.36  41 3.36
  31  0.341  0.000  0.342-  55 1.97 109 1.98 113 1.98  97 2.04 103 2.09 107 2.09  33 3.09  35 3.09
                            25 3.14  29 3.14  37 3.33  44 3.36  48 3.36
  32  0.341  0.000  0.842-  56 1.97 110 1.98 114 1.98  98 2.04 104 2.09 108 2.09  34 3.09  36 3.09
                            26 3.14  30 3.14  38 3.33  43 3.36  47 3.36
  33  0.341  0.333  0.342-  57 1.97 111 1.98 109 1.98  99 2.04 105 2.09 103 2.09  35 3.09  31 3.09
                            27 3.14  25 3.14  39 3.33  46 3.36  44 3.36
  34  0.341  0.333  0.842-  58 1.97 112 1.98 110 1.98 100 2.04 106 2.09 104 2.09  36 3.09  32 3.09
                            28 3.14  26 3.14  40 3.33  45 3.36  43 3.36
  35  0.341  0.667  0.342-  59 1.97 111 1.98 113 1.98 101 2.04 105 2.09 107 2.09  33 3.09  31 3.09
                            27 3.14  29 3.14  41 3.33  46 3.36  48 3.36
  36  0.341  0.667  0.842-  60 1.97 112 1.98 114 1.98 102 2.04 106 2.09 108 2.09  34 3.09  32 3.09
                            28 3.14  30 3.14  42 3.33  45 3.36  47 3.36
  37  0.091  0.000  0.398- 116 1.87  95 1.88  91 1.88  97 1.91  39 3.09  41 3.09  31 3.33  30 3.36
                            26 3.36
  38  0.091  0.000  0.898- 115 1.87  96 1.88  92 1.88  98 1.91  40 3.09  42 3.09  32 3.33  29 3.36
                            25 3.36
  39  0.091  0.333  0.398- 118 1.87  93 1.88  91 1.88  99 1.91  41 3.09  37 3.09  33 3.33  28 3.36
                            26 3.36
  40  0.091  0.333  0.898- 117 1.87  94 1.88  92 1.88 100 1.91  42 3.09  38 3.09  34 3.33  27 3.36
                            25 3.36
  41  0.091  0.667  0.398- 120 1.87  93 1.88  95 1.88 101 1.91  39 3.09  37 3.09  35 3.33  28 3.36
                            30 3.36
  42  0.091  0.667  0.898- 119 1.87  94 1.88  96 1.88 102 1.91  40 3.09  38 3.09  36 3.33  27 3.36
                            29 3.36
  43  0.409  0.167  0.102- 110 1.87  85 1.88  87 1.88 103 1.91  47 3.09  45 3.09  25 3.33  32 3.36
                            34 3.36
  44  0.409  0.167  0.602- 109 1.87  86 1.88  88 1.88 104 1.91  48 3.09  46 3.09  26 3.33  31 3.36
                            33 3.36
  45  0.409  0.500  0.102- 112 1.87  89 1.88  87 1.88 105 1.91  43 3.09  47 3.09  27 3.33  34 3.36
                            36 3.36
  46  0.409  0.500  0.602- 111 1.87  90 1.88  88 1.88 106 1.91  44 3.09  48 3.09  28 3.33  33 3.36
                            35 3.36
  47  0.409  0.833  0.102- 114 1.87  85 1.88  89 1.88 107 1.91  43 3.09  45 3.09  29 3.33  32 3.36
                            36 3.36
  48  0.409  0.833  0.602- 113 1.87  86 1.88  90 1.88 108 1.91  44 3.09  46 3.09  30 3.33  31 3.36
                            35 3.36
  49  0.997  0.167  0.128-  19 1.88  21 1.88  25 1.97
  50  0.997  0.167  0.628-  20 1.88  22 1.88  26 1.97
  51  0.997  0.500  0.128-  21 1.88  23 1.88  27 1.97
  52  0.997  0.500  0.628-  22 1.88  24 1.88  28 1.97
  53  0.997  0.833  0.128-  19 1.88  23 1.88  29 1.97
  54  0.997  0.833  0.628-  20 1.88  24 1.88  30 1.97
  55  0.503  0.000  0.372-  13 1.88  17 1.88  31 1.97
  56  0.503  0.000  0.872-  14 1.88  18 1.88  32 1.97
  57  0.503  0.333  0.372-  15 1.88  13 1.88  33 1.97
  58  0.503  0.333  0.872-  16 1.88  14 1.88  34 1.97
  59  0.503  0.667  0.372-  15 1.88  17 1.88  35 1.97
  60  0.503  0.667  0.872-  16 1.88  18 1.88  36 1.97
  61  0.673  0.167  0.280-  13 1.91   7 2.04   1 2.09   3 2.09
  62  0.673  0.167  0.780-  14 1.91   8 2.04   2 2.09   4 2.09
  63  0.673  0.500  0.280-  15 1.91   9 2.04   3 2.09   5 2.09
  64  0.673  0.500  0.780-  16 1.91  10 2.04   4 2.09   6 2.09
  65  0.673  0.833  0.280-  17 1.91  11 2.04   1 2.09   5 2.09
  66  0.673  0.833  0.780-  18 1.91  12 2.04   2 2.09   6 2.09
  67  0.827  0.000  0.220-  19 1.91   1 2.04  11 2.09   7 2.09
  68  0.827  0.000  0.720-  20 1.91   2 2.04  12 2.09   8 2.09
  69  0.827  0.333  0.220-  21 1.91   3 2.04   9 2.09   7 2.09
  70  0.827  0.333  0.720-  22 1.91   4 2.04  10 2.09   8 2.09
  71  0.827  0.667  0.220-  23 1.91   5 2.04   9 2.09  11 2.09
  72  0.827  0.667  0.720-  24 1.91   6 2.04  10 2.09  12 2.09
  73  0.833  0.000  0.444-  20 1.87  11 1.98   7 1.98
  74  0.833  0.000  0.944-  19 1.87  12 1.98   8 1.98
  75  0.833  0.333  0.444-  22 1.87   9 1.98   7 1.98
  76  0.833  0.333  0.944-  21 1.87  10 1.98   8 1.98
  77  0.833  0.667  0.444-  24 1.87   9 1.98  11 1.98
  78  0.833  0.667  0.944-  23 1.87  10 1.98  12 1.98
  79  0.667  0.167  0.056-  14 1.87   1 1.98   3 1.98
  80  0.667  0.167  0.556-  13 1.87   2 1.98   4 1.98
  81  0.667  0.500  0.056-  16 1.87   5 1.98   3 1.98
  82  0.667  0.500  0.556-  15 1.87   6 1.98   4 1.98
  83  0.667  0.833  0.056-  18 1.87   1 1.98   5 1.98
  84  0.667  0.833  0.556-  17 1.87   2 1.98   6 1.98
  85  0.497  0.000  0.128-  43 1.88  47 1.88   1 1.97
  86  0.497  0.000  0.628-  44 1.88  48 1.88   2 1.97
  87  0.497  0.333  0.128-  45 1.88  43 1.88   3 1.97
  88  0.497  0.333  0.628-  46 1.88  44 1.88   4 1.97
  89  0.497  0.667  0.128-  45 1.88  47 1.88   5 1.97
  90  0.497  0.667  0.628-  46 1.88  48 1.88   6 1.97
  91  0.003  0.167  0.372-  37 1.88  39 1.88   7 1.97
  92  0.003  0.167  0.872-  38 1.88  40 1.88   8 1.97
  93  0.003  0.500  0.372-  39 1.88  41 1.88   9 1.97
  94  0.003  0.500  0.872-  40 1.88  42 1.88  10 1.97
  95  0.003  0.833  0.372-  37 1.88  41 1.88  11 1.97
  96  0.003  0.833  0.872-  38 1.88  42 1.88  12 1.97
[...]
     0.000000000 -2.803987897-11.462147567     0.000000000 -0.000008639 -0.087241572

  length of vectors
    12.443900341  9.277958934 11.800134532     0.082728266  0.107782327  0.087241573

 FORCES acting on ions
    electron-ion (+dipol)            ewald-force                    non-local-force                 convergence-correction
   0.395E-13 0.714E+01 -.102E+02   -.113E-13 -.701E+01 0.114E+02   -.461E-22 -.139E+00 -.120E+01   -.770E-13 0.373E-04 0.221E-03
   -.253E-14 0.714E+01 -.102E+02   -.108E-13 -.701E+01 0.114E+02   0.719E-23 -.139E+00 -.120E+01   -.963E-13 0.373E-04 0.221E-03
   0.201E-11 0.714E+01 -.102E+02   -.211E-10 -.701E+01 0.114E+02   -.305E-22 -.139E+00 -.120E+01   -.837E-13 0.373E-04 0.221E-03
   0.125E-11 0.714E+01 -.102E+02   -.210E-10 -.701E+01 0.114E+02   0.189E-22 -.139E+00 -.120E+01   -.601E-13 0.373E-04 0.221E-03
   -.179E-11 0.714E+01 -.102E+02   0.211E-10 -.701E+01 0.114E+02   -.174E-22 -.139E+00 -.120E+01   0.164E-12 0.373E-04 0.221E-03
   -.152E-11 0.714E+01 -.102E+02   0.210E-10 -.701E+01 0.114E+02   0.545E-23 -.139E+00 -.120E+01   0.160E-12 0.373E-04 0.221E-03
   -.250E-11 -.714E+01 0.102E+02   0.211E-10 0.701E+01 -.114E+02   0.741E-25 0.139E+00 0.120E+01   -.204E-12 -.373E-04 -.221E-03
   -.297E-11 -.714E+01 0.102E+02   0.210E-10 0.701E+01 -.114E+02   -.203E-22 0.139E+00 0.120E+01   -.203E-12 -.373E-04 -.221E-03
   0.815E-12 -.714E+01 0.102E+02   -.444E-14 0.701E+01 -.114E+02   -.169E-22 0.139E+00 0.120E+01   0.911E-13 -.373E-04 -.221E-03
   0.129E-11 -.714E+01 0.102E+02   -.533E-14 0.701E+01 -.114E+02   -.686E-23 0.139E+00 0.120E+01   0.104E-12 -.373E-04 -.221E-03
   0.240E-11 -.714E+01 0.102E+02   -.211E-10 0.701E+01 -.114E+02   -.779E-23 0.139E+00 0.120E+01   0.118E-12 -.373E-04 -.221E-03
   0.197E-11 -.714E+01 0.102E+02   -.210E-10 0.701E+01 -.114E+02   0.255E-23 0.139E+00 0.120E+01   0.104E-12 -.373E-04 -.221E-03
   -.834E-12 -.864E+01 0.556E+01   0.193E-10 0.743E+01 -.593E+01   -.124E-22 0.121E+01 0.363E+00   -.171E-12 -.991E-04 -.235E-03
   -.865E-12 -.864E+01 0.556E+01   0.193E-10 0.743E+01 -.593E+01   0.162E-22 0.121E+01 0.363E+00   -.176E-12 -.991E-04 -.235E-03
   -.147E-12 -.864E+01 0.556E+01   0.151E-13 0.743E+01 -.593E+01   0.186E-22 0.121E+01 0.363E+00   0.756E-13 -.991E-04 -.235E-03
   -.102E-13 -.864E+01 0.556E+01   0.888E-15 0.743E+01 -.593E+01   -.123E-22 0.121E+01 0.363E+00   0.679E-13 -.991E-04 -.235E-03
   0.153E-11 -.864E+01 0.556E+01   -.193E-10 0.743E+01 -.593E+01   -.985E-23 0.121E+01 0.363E+00   0.947E-13 -.991E-04 -.235E-03
   0.994E-12 -.864E+01 0.556E+01   -.193E-10 0.743E+01 -.593E+01   0.192E-22 0.121E+01 0.363E+00   0.107E-12 -.991E-04 -.235E-03
   0.873E-14 0.864E+01 -.556E+01   0.533E-14 -.743E+01 0.593E+01   0.288E-22 -.121E+01 -.363E+00   -.920E-13 0.991E-04 0.235E-03
   0.511E-13 0.864E+01 -.556E+01   0.160E-13 -.743E+01 0.593E+01   -.136E-22 -.121E+01 -.363E+00   -.823E-13 0.991E-04 0.235E-03
   0.232E-12 0.864E+01 -.556E+01   -.193E-10 -.743E+01 0.593E+01   0.402E-22 -.121E+01 -.363E+00   -.108E-12 0.991E-04 0.235E-03
   0.108E-11 0.864E+01 -.556E+01   -.193E-10 -.743E+01 0.593E+01   -.543E-22 -.121E+01 -.363E+00   -.111E-12 0.991E-04 0.235E-03
   -.117E-11 0.864E+01 -.556E+01   0.193E-10 -.743E+01 0.593E+01   0.418E-22 -.121E+01 -.363E+00   0.203E-12 0.991E-04 0.235E-03
   -.926E-12 0.864E+01 -.556E+01   0.193E-10 -.743E+01 0.593E+01   0.107E-23 -.121E+01 -.363E+00   0.196E-12 0.991E-04 0.235E-03
   -.182E-11 0.714E+01 -.102E+02   0.211E-10 -.701E+01 0.114E+02   -.331E-22 -.139E+00 -.120E+01   -.205E-12 0.373E-04 0.221E-03
   -.169E-11 0.714E+01 -.102E+02   0.210E-10 -.701E+01 0.114E+02   0.106E-22 -.139E+00 -.120E+01   -.206E-12 0.373E-04 0.221E-03
   -.117E-12 0.714E+01 -.102E+02   -.711E-14 -.701E+01 0.114E+02   -.175E-22 -.139E+00 -.120E+01   0.390E-13 0.373E-04 0.221E-03
   0.187E-13 0.714E+01 -.102E+02   -.107E-13 -.701E+01 0.114E+02   0.422E-22 -.139E+00 -.120E+01   0.443E-13 0.373E-04 0.221E-03
   0.170E-11 0.714E+01 -.102E+02   -.211E-10 -.701E+01 0.114E+02   -.499E-22 -.139E+00 -.120E+01   0.170E-12 0.373E-04 0.221E-03
   0.173E-11 0.714E+01 -.102E+02   -.210E-10 -.701E+01 0.114E+02   0.187E-22 -.139E+00 -.120E+01   0.165E-12 0.373E-04 0.221E-03
   -.956E-14 -.714E+01 0.102E+02   -.151E-13 0.701E+01 -.114E+02   -.225E-22 0.139E+00 0.120E+01   -.325E-13 -.373E-04 -.221E-03
   0.248E-14 -.714E+01 0.102E+02   -.888E-14 0.701E+01 -.114E+02   0.318E-24 0.139E+00 0.120E+01   -.224E-13 -.373E-04 -.221E-03
   0.163E-11 -.714E+01 0.102E+02   -.211E-10 0.701E+01 -.114E+02   -.470E-25 0.139E+00 0.120E+01   -.121E-12 -.373E-04 -.221E-03
   0.170E-11 -.714E+01 0.102E+02   -.210E-10 0.701E+01 -.114E+02   0.962E-23 0.139E+00 0.120E+01   -.136E-12 -.373E-04 -.221E-03
   -.172E-11 -.714E+01 0.102E+02   0.211E-10 0.701E+01 -.114E+02   0.110E-23 0.139E+00 0.120E+01   0.157E-12 -.373E-04 -.221E-03
   -.157E-11 -.714E+01 0.102E+02   0.210E-10 0.701E+01 -.114E+02   -.143E-22 0.139E+00 0.120E+01   0.162E-12 -.373E-04 -.221E-03
   -.429E-14 -.864E+01 0.556E+01   -.711E-14 0.743E+01 -.593E+01   -.110E-22 0.121E+01 0.363E+00   -.515E-13 -.991E-04 -.235E-03
   0.338E-14 -.864E+01 0.556E+01   0.888E-14 0.743E+01 -.593E+01   0.204E-22 0.121E+01 0.363E+00   -.507E-13 -.991E-04 -.235E-03
   0.104E-11 -.864E+01 0.556E+01   -.193E-10 0.743E+01 -.593E+01   0.663E-23 0.121E+01 0.363E+00   -.139E-12 -.991E-04 -.235E-03
   0.976E-12 -.864E+01 0.556E+01   -.193E-10 0.743E+01 -.593E+01   0.568E-23 0.121E+01 0.363E+00   -.141E-12 -.991E-04 -.235E-03
   -.996E-12 -.864E+01 0.556E+01   0.193E-10 0.743E+01 -.593E+01   -.342E-23 0.121E+01 0.363E+00   0.190E-12 -.991E-04 -.235E-03
   -.100E-11 -.864E+01 0.556E+01   0.193E-10 0.743E+01 -.593E+01   -.176E-22 0.121E+01 0.363E+00   0.192E-12 -.991E-04 -.235E-03
   -.139E-11 0.864E+01 -.556E+01   0.193E-10 -.743E+01 0.593E+01   0.107E-22 -.121E+01 -.363E+00   -.170E-12 0.991E-04 0.235E-03
   -.101E-11 0.864E+01 -.556E+01   0.193E-10 -.743E+01 0.593E+01   0.219E-24 -.121E+01 -.363E+00   -.167E-12 0.991E-04 0.235E-03
   0.372E-12 0.864E+01 -.556E+01   0.711E-14 -.743E+01 0.593E+01   0.333E-22 -.121E+01 -.363E+00   0.235E-13 0.991E-04 0.235E-03
   0.789E-14 0.864E+01 -.556E+01   0.160E-13 -.743E+01 0.593E+01   -.250E-22 -.121E+01 -.363E+00   0.539E-13 0.991E-04 0.235E-03
   0.105E-11 0.864E+01 -.556E+01   -.193E-10 -.743E+01 0.593E+01   0.133E-22 -.121E+01 -.363E+00   0.148E-12 0.991E-04 0.235E-03
   0.473E-12 0.864E+01 -.556E+01   -.193E-10 -.743E+01 0.593E+01   -.109E-22 -.121E+01 -.363E+00   0.116E-12 0.991E-04 0.235E-03
   0.401E-11 0.148E+02 -.989E+01   0.290E-10 -.788E+01 0.621E+01   -.261E-23 -.695E+01 0.369E+01   -.612E-12 0.135E-02 -.174E-03
   0.384E-11 0.148E+02 -.989E+01   0.290E-10 -.788E+01 0.621E+01   -.643E-22 -.695E+01 0.369E+01   -.590E-12 0.135E-02 -.174E-03
   0.145E-11 0.148E+02 -.989E+01   0.107E-13 -.788E+01 0.621E+01   -.348E-21 -.695E+01 0.369E+01   0.121E-12 0.135E-02 -.174E-03
   -.447E-11 0.148E+02 -.989E+01   0.142E-13 -.788E+01 0.621E+01   0.798E-23 -.695E+01 0.369E+01   0.101E-12 0.135E-02 -.174E-03
   0.200E-12 0.148E+02 -.989E+01   -.290E-10 -.788E+01 0.621E+01   -.500E-22 -.695E+01 0.369E+01   0.353E-12 0.135E-02 -.174E-03
   0.158E-12 0.148E+02 -.989E+01   -.290E-10 -.788E+01 0.621E+01   0.498E-22 -.695E+01 0.369E+01   0.354E-12 0.135E-02 -.174E-03
   0.187E-13 -.148E+02 0.989E+01   0.240E-13 0.788E+01 -.621E+01   -.348E-21 0.695E+01 -.369E+01   -.196E-12 -.135E-02 0.174E-03
   0.806E-14 -.148E+02 0.989E+01   0.204E-13 0.788E+01 -.621E+01   -.226E-21 0.695E+01 -.369E+01   -.159E-12 -.135E-02 0.174E-03
   -.235E-10 -.148E+02 0.989E+01   -.290E-10 0.788E+01 -.621E+01   -.250E-21 0.695E+01 -.369E+01   -.209E-12 -.135E-02 0.174E-03
   -.256E-10 -.148E+02 0.989E+01   -.290E-10 0.788E+01 -.621E+01   -.158E-21 0.695E+01 -.369E+01   -.254E-12 -.135E-02 0.174E-03
   0.257E-10 -.148E+02 0.989E+01   0.290E-10 0.788E+01 -.621E+01   -.338E-21 0.695E+01 -.369E+01   0.322E-12 -.135E-02 0.174E-03
   0.296E-10 -.148E+02 0.989E+01   0.290E-10 0.788E+01 -.621E+01   -.821E-22 0.695E+01 -.369E+01   0.328E-12 -.135E-02 0.174E-03
[...]
   -.279E-10 -.422E+02 -.347E+02   -.261E-10 0.407E+02 0.304E+02   -.110E-21 0.155E+01 0.423E+01   0.340E-12 -.118E-02 -.111E-02
   -.277E-10 -.422E+02 -.347E+02   -.261E-10 0.407E+02 0.304E+02   0.734E-22 0.155E+01 0.423E+01   0.307E-12 -.118E-02 -.111E-02
   0.247E-10 0.248E+02 0.483E+02   0.266E-10 -.362E+02 -.449E+02   -.676E-22 0.114E+02 -.336E+01   -.444E-12 -.227E-03 0.125E-02
   0.249E-10 0.248E+02 0.483E+02   0.265E-10 -.362E+02 -.449E+02   0.352E-22 0.114E+02 -.336E+01   -.445E-12 -.227E-03 0.125E-02
   0.262E-11 0.248E+02 0.483E+02   0.213E-13 -.362E+02 -.449E+02   -.204E-21 0.114E+02 -.336E+01   0.624E-13 -.227E-03 0.125E-02
   0.903E-12 0.248E+02 0.483E+02   0.711E-14 -.362E+02 -.449E+02   -.651E-22 0.114E+02 -.336E+01   0.843E-14 -.227E-03 0.125E-02
   -.259E-10 0.248E+02 0.483E+02   -.265E-10 -.362E+02 -.449E+02   0.148E-21 0.114E+02 -.336E+01   0.330E-12 -.227E-03 0.125E-02
   -.268E-10 0.248E+02 0.483E+02   -.265E-10 -.362E+02 -.449E+02   0.629E-22 0.114E+02 -.336E+01   0.386E-12 -.227E-03 0.125E-02
   0.213E-14 -.248E+02 -.483E+02   -.711E-14 0.362E+02 0.449E+02   -.102E-21 -.114E+02 0.336E+01   -.151E-12 0.227E-03 -.125E-02
   -.215E-14 -.248E+02 -.483E+02   0.711E-14 0.362E+02 0.449E+02   -.174E-21 -.114E+02 0.336E+01   -.162E-12 0.227E-03 -.125E-02
   -.270E-10 -.248E+02 -.483E+02   -.265E-10 0.362E+02 0.449E+02   -.387E-22 -.114E+02 0.336E+01   -.387E-12 0.227E-03 -.125E-02
   -.263E-10 -.248E+02 -.483E+02   -.265E-10 0.362E+02 0.449E+02   -.781E-22 -.114E+02 0.336E+01   -.373E-12 0.227E-03 -.125E-02
   0.266E-10 -.248E+02 -.483E+02   0.265E-10 0.362E+02 0.449E+02   0.257E-22 -.114E+02 0.336E+01   0.361E-12 0.227E-03 -.125E-02
   0.264E-10 -.248E+02 -.483E+02   0.265E-10 0.362E+02 0.449E+02   0.202E-21 -.114E+02 0.336E+01   0.358E-12 0.227E-03 -.125E-02
   0.188E-10 0.139E-08 0.510E-10   0.999E-14 0.398E-12 0.398E-12   -.223E-20 0.302E-13 -.888E-14   -.266E-11 -.724E-12 -.240E-11

 POSITION                                       TOTAL-FORCE (eV/Angst)
      0.00000      7.75957     -1.81237         0.000000     -0.002520      0.002173
      0.00000      6.35758     -7.54345         0.000000     -0.002520      0.002173
      3.09265      7.75957     -1.81237        -0.000000     -0.002520      0.002173
      3.09265      6.35758     -7.54345         0.000000     -0.002520      0.002173
      6.18531      7.75957     -1.81237         0.000000     -0.002520      0.002173
      6.18531      6.35758     -7.54345         0.000000     -0.002520      0.002173
      1.54633      9.50428     -3.92055        -0.000000      0.002520     -0.002173
      1.54633      8.10229     -9.65162         0.000000      0.002520     -0.002173
      4.63898      9.50428     -3.92055         0.000000      0.002520     -0.002173
      4.63898      8.10229     -9.65162        -0.000000      0.002520     -0.002173
      7.73163      9.50428     -3.92055         0.000000      0.002520     -0.002173
      7.73163      8.10229     -9.65162         0.000000      0.002520     -0.002173
      1.54633      6.24012     -4.56439        -0.000000      0.003034     -0.002806
      1.54633      4.83812    -10.29546         0.000000      0.003034     -0.002806
      4.63898      6.24012     -4.56439         0.000000      0.003034     -0.002806
      4.63898      4.83812    -10.29546        -0.000000      0.003034     -0.002806
      7.73163      6.24012     -4.56439         0.000000      0.003034     -0.002806
      7.73163      4.83812    -10.29546        -0.000000      0.003034     -0.002806
      0.00000     11.02374     -1.16853        -0.000000     -0.003034      0.002806
      0.00000      9.62175     -6.89961         0.000000     -0.003034      0.002806
      3.09265     11.02374     -1.16853         0.000000     -0.003034      0.002806
      3.09265      9.62175     -6.89961         0.000000     -0.003034      0.002806
      6.18531     11.02374     -1.16853         0.000000     -0.003034      0.002806
      6.18531      9.62175     -6.89961         0.000000     -0.003034      0.002806
      1.54633      1.53762     -1.81176         0.000000     -0.002520      0.002173
      1.54633      0.13563     -7.54283        -0.000000     -0.002520      0.002173
      4.63898      1.53762     -1.81176        -0.000000     -0.002520      0.002173
      4.63898      0.13563     -7.54283         0.000000     -0.002520      0.002173
      7.73163      1.53762     -1.81176         0.000000     -0.002520      0.002173
      7.73163      0.13563     -7.54283         0.000000     -0.002520      0.002173
      0.00000      3.28233     -3.91993         0.000000      0.002520     -0.002173
      0.00000      1.88034     -9.65101        -0.000000      0.002520     -0.002173
      3.09265      3.28233     -3.91993         0.000000      0.002520     -0.002173
      3.09265      1.88034     -9.65101        -0.000000      0.002520     -0.002173
      6.18531      3.28233     -3.91993         0.000000      0.002520     -0.002173
      6.18531      1.88034     -9.65101         0.000000      0.002520     -0.002173
      0.00000      0.01817     -4.56377         0.000000      0.003034     -0.002806
      0.00000     -1.38383    -10.29485        -0.000000      0.003034     -0.002806
      3.09265      0.01817     -4.56377         0.000000      0.003034     -0.002806
      3.09265     -1.38383    -10.29485        -0.000000      0.003034     -0.002806
      6.18531      0.01817     -4.56377         0.000000      0.003034     -0.002806
      6.18531     -1.38383    -10.29485         0.000000      0.003034     -0.002806
      1.54633      4.80179     -1.16792        -0.000000     -0.003034      0.002806
      1.54633      3.39980     -6.89899        -0.000000     -0.003034      0.002806
      4.63898      4.80179     -1.16792        -0.000000     -0.003034      0.002806
      4.63898      3.39980     -6.89899         0.000000     -0.003034      0.002806
      7.73163      4.80179     -1.16792        -0.000000     -0.003034      0.002806
      7.73163      3.39980     -6.89899         0.000000     -0.003034      0.002806
      1.54633     12.04280     -1.46793         0.000000      0.002524      0.011653
      1.54633     10.64081     -7.19900        -0.000000      0.002524      0.011653
      4.63898     12.04280     -1.46793        -0.000000      0.002524      0.011653
      4.63898     10.64081     -7.19900        -0.000000      0.002524      0.011653
      7.73163     12.04280     -1.46793         0.000000      0.002524      0.011653
      7.73163     10.64081     -7.19900        -0.000000      0.002524      0.011653
      0.00000      5.22105     -4.26500         0.000000     -0.002524     -0.011653
      0.00000      3.81906     -9.99607        -0.000000     -0.002524     -0.011653
      3.09265      5.22105     -4.26500         0.000000     -0.002524     -0.011653
      3.09265      3.81906     -9.99607         0.000000     -0.002524     -0.011653
      6.18531      5.22105     -4.26500        -0.000000     -0.002524     -0.011653
      6.18531      3.81906     -9.99607        -0.000000     -0.002524     -0.011653
[...]
      4.63898      2.04806     -8.24842        -0.000000      0.003832     -0.006540
      7.73163      3.45006     -2.51735        -0.000000      0.003832     -0.006540
      7.73163      2.04806     -8.24842         0.000000      0.003832     -0.006540
      1.54633      2.89707     -5.09307         0.000000      0.003341      0.007337
      1.54633      1.49508    -10.82414        -0.000000      0.003341      0.007337
      4.63898      2.89707     -5.09307         0.000000      0.003341      0.007337
      4.63898      1.49508    -10.82414        -0.000000      0.003341      0.007337
      7.73163      2.89707     -5.09307         0.000000      0.003341      0.007337
      7.73163      1.49508    -10.82414         0.000000      0.003341      0.007337
      0.00000      1.92288     -0.63862         0.000000     -0.003341     -0.007337
      0.00000      0.52089     -6.36970         0.000000     -0.003341     -0.007337
      3.09265      1.92288     -0.63862         0.000000     -0.003341     -0.007337
      3.09265      0.52089     -6.36970        -0.000000     -0.003341     -0.007337
      6.18531      1.92288     -0.63862        -0.000000     -0.003341     -0.007337
      6.18531      0.52089     -6.36970         0.000000     -0.003341     -0.007337
    total drift:                                0.000000      0.000000      0.000000

  FREE ENERGIE OF THE ION-ELECTRON SYSTEM (eV)
  free  energy   TOTEN  =      -721.35864369 eV

  energy  without entropy=     -721.35864369  energy(sigma->0) =     -721.35864369

 writing wavefunctions